&control
  calculation='relax'
  restart_mode='from_scratch'
  prefix='scm2020b'
  pseudo_dir='../../../pp'
  etot_conv_thr = 1.0D-6
  forc_conv_thr = 1
  outdir='./out'
  nstep=20000
  max_seconds=14000
  tprnfor=.TRUE.
  tstress=.TRUE.
  disk_io='none'
/
&system
  ibrav=0
  a=6.0667870522
  nat=6
  ntyp=2,
  ecutwfc=140
  ecutrho=560
  nosym=.TRUE.
  occupations='smearing'
  smearing='gaussian'
  degauss=0.02
/
&electrons
  diagonalization='david'
  electron_maxstep = 100
  mixing_beta = 0.7
  conv_thr = 1.0D-6
/
&ions
/
K_POINTS automatic 
2 1 1 0 0 0
CELL_PARAMETERS {alat}
 1.000000000000000   0.000000000000000   0.000000000000000
 0.500000000000000   0.866025404000000   0.000000000000000
 0.500000000000000   0.288675135000000   0.816496581000000

ATOMIC_SPECIES
Nb   92.90638   Nb.pbe-spn-kjpaw_psl.1.0.0.UPF 
Fe   55.84500   Fe.pbe-spn-kjpaw_psl.1.0.0.UPF 

ATOMIC_POSITIONS {angstrom}
Nb 5.9533011516941166 3.578453378470748 1.149294748082052
Nb 5.3689907491103614 2.280601288937034 3.248497948207115
Nb 4.181749277734786 4.161698909945116 2.861956136956195
Nb 7.077541120028971 4.2296240429080765 3.119986975593296
Fe 2.6530601869694164 2.2689470647361105 1.5982271606807124
Fe 0.3415576901961614 0.692344841468556 0.05951450787975998
