&CONTROL
calculation = 'scf' 
verbosity = 'high',
restart_mode = 'from_scratch',
wf_collect = .true.
nstep = 1000,
tstress = .true.,
tprnfor = .true., 
outdir = './out',
pseudo_dir = '/home/sampa/Lab6/pseudos',
prefix = 'dimer',
/  
&SYSTEM
        ibrav = 0, 
         nat = 12,
         ntyp = 3,
      ecutwfc = 45,
      ecutrho = 200,
    input_dft = 'PBE',
assume_isolated='mt',
/    
&ELECTRONS 
  electron_maxstep = 500,
  mixing_beta = 0.3 
/ 
&IONS 
/
CELL_PARAMETERS angstrom 
10.0000        0.0000        0.0000
0.0000        12.000        0.0000
0.0000        0.0000        12.000
K_POINTS {automatic}
2 1 1 0 0 0
ATOMIC_SPECIES
O   15.9994   O_pbe_v1.2.uspp.F.UPF
H    1.0080   H.pbe-rrkjus_psl.0.1.UPF
C   12.0110   C_pbe_v1.2.uspp.F.UPF
ATOMIC_POSITIONS angstrom
C  6.940151489          9.325393073          12.917577815
O  8.326151489          9.498393073          13.145577815
H  6.778151489          8.696393073          12.038577815
H  6.473151489          10.302393073          12.768577815
H  6.496151489          8.842393073          13.791577815
C  6.888128511          9.756376927          8.796592185
H  6.764128511          9.828376927          7.712592185
H  7.057128511          8.715376927          9.083592185
H  5.988128511          10.129376927          9.288592185
O  8.001128511          10.537376927          9.202592185
H  8.776151489          9.450393073          12.281577815
H  8.738128511          10.304376927          8.615592185
