&control
  calculation='relax'
  restart_mode='from_scratch'
  prefix='scm2020i'
  pseudo_dir='../../../pp'
  etot_conv_thr = 1.0D-3
  forc_conv_thr = 1
  outdir='./out'
  nstep=20000
  max_seconds=14000
  tprnfor=.TRUE.
  tstress=.TRUE.
  disk_io='none'
/
&system
  ibrav=0
  a=4.7604413033
  nat=12
  ntyp=2,
  ecutwfc=70
  ecutrho=280
  nosym=.TRUE.
  occupations='smearing'
  smearing='gaussian'
  degauss=0.02
/
&electrons
  diagonalization='david'
  electron_maxstep = 100
  mixing_beta = 0.7
  conv_thr = 1.0D-3
/
&ions
/
K_POINTS automatic 
2 1 1 0 0 0
CELL_PARAMETERS {alat}
 1.000000000000000   0.000000000000000   0.000000000000000
-0.499999885000000   0.866025470000000   0.000000000000000
 0.000000000000000   0.000000000000000   1.658502956000000

ATOMIC_SPECIES
Nb   92.90638   Nb.pbe-spn-kjpaw_psl.1.0.0.UPF 
Fe   55.84500   Fe.pbe-spn-kjpaw_psl.1.0.0.UPF 

ATOMIC_POSITIONS {angstrom}
Nb 0.0302235221232661 2.8111734411939455 3.467556345380381
Nb 2.407859571378342 1.3899534229419017 4.56847288382199
Nb 2.4620096295528486 1.418390987496762 7.385288427265853
Nb 0.01726090701221758 2.8465844939992797 0.5613920286813592
Fe 0.09816535960279343 0.005573739746451312 4.04413007895633
Fe 0.06306063789142492 0.08238151212902002 0.05472943434832646
Fe -1.1070222609934883 3.4671796172538634 6.006805977818624
Fe 0.09976361167113604 1.4599695149416356 5.9892798050368246
Fe 1.2344826904056727 3.4444719664779577 6.004711847932786
Fe 3.572192400449622 0.761848942866363 2.021273133133389
Fe 2.413921089480711 2.763782748735608 1.978429380294552
Fe 1.220415250504939 0.7106976636664648 2.0069029012824764
