&CONTROL
calculation = 'scf' 
verbosity = 'high',
restart_mode = 'from_scratch',
wf_collect = .true.
nstep = 1000,
tstress = .true.,
tprnfor = .true., 
outdir = './out',
pseudo_dir = '/home/sampa/Lab6/pseudos',
prefix = 'dimer',
/  
&SYSTEM
        ibrav = 0, 
         nat = 12,
         ntyp = 3,
      ecutwfc = 45,
      ecutrho = 200,
    input_dft = 'PBE',
assume_isolated='mt',
/    
&ELECTRONS 
  electron_maxstep = 500,
  mixing_beta = 0.3 
/ 
&IONS 
/
CELL_PARAMETERS angstrom 
10.0000        0.0000        0.0000
0.0000        12.000        0.0000
0.0000        0.0000        12.000
K_POINTS {automatic}
2 1 1 0 0 0
ATOMIC_SPECIES
O   15.9994   O_pbe_v1.2.uspp.F.UPF
H    1.0080   H.pbe-rrkjus_psl.0.1.UPF
C   12.0110   C_pbe_v1.2.uspp.F.UPF
ATOMIC_POSITIONS angstrom
C     7.345909513          8.334496235          11.903323664
O     7.904025010          7.027890081          12.037064997
H     7.176870188          6.383995202          11.976352089
O     6.065095458          11.876529043          10.999423749
H     5.355729295          12.542445214          10.988261386
C     6.689816966          11.921741366          12.281530011
H     7.534422554          11.219552118          12.245272648
H     6.007234809          11.604055333          13.093130651
H     7.086308136          12.926342702          12.519565017
H     8.190318832          9.038338845          11.925728084
H     6.659941181          8.585130574          12.735312395
H     6.809758056          8.470063286          10.945765310
