&control
  calculation='relax'
  restart_mode='from_scratch'
  prefix='scm2020h'
  pseudo_dir='../../../pp'
  etot_conv_thr = 1.0D-6
  forc_conv_thr = 1
  outdir='./out'
  nstep=20000
  max_seconds=14000
  tprnfor=.TRUE.
  tstress=.TRUE.
  disk_io='none'
/
&system
  ibrav=0
  a=6.1402504921
  nat=4
  ntyp=2,
  ecutwfc=140
  ecutrho=560
  nosym=.TRUE.
  occupations='smearing'
  smearing='gaussian'
  degauss=0.02
/
&electrons
  diagonalization='david'
  electron_maxstep = 100
  mixing_beta = 0.7
  conv_thr = 1.0D-6
/
&ions
/
K_POINTS automatic 
2 1 1 0 0 0
CELL_PARAMETERS {alat}
 1.000000000000000   0.000000000000000   0.000000000000000
 0.495467528000000   0.868626461000000   0.000000000000000
-0.747733833000000  -0.434313270000000   0.502260987000000

ATOMIC_SPECIES
Nb   92.90638   Nb.pbe-spn-kjpaw_psl.1.0.0.UPF 
Fe   55.84500   Fe.pbe-spn-kjpaw_psl.1.0.0.UPF 

ATOMIC_POSITIONS {angstrom}
Nb 4.604565474455768 2.5581967999265376 0.6610304230600521
Nb 3.0780882578694326 0.2422386023271813 1.963500975134078
Nb 1.8961550238495484 2.533086256132448 1.6243856302168296
Fe 0.41130413544519717 0.032850416634253476 0.5306325781430608
