&CONTROL
calculation = 'scf' 
verbosity = 'high',
restart_mode = 'from_scratch',
wf_collect = .true.
nstep = 1000,
tstress = .true.,
tprnfor = .true., 
outdir = './out',
pseudo_dir = '/home/sampa/Lab6/pseudos',
prefix = 'dimer',
/  
&SYSTEM
        ibrav = 0, 
         nat = 12,
         ntyp = 3,
      ecutwfc = 45,
      ecutrho = 200,
    input_dft = 'PBE',
assume_isolated='mt',
/    
&ELECTRONS 
  electron_maxstep = 500,
  mixing_beta = 0.3 
/ 
&IONS 
/
CELL_PARAMETERS angstrom 
10.0000        0.0000        0.0000
0.0000        12.000        0.0000
0.0000        0.0000        12.000
K_POINTS {automatic}
2 1 1 0 0 0
ATOMIC_SPECIES
O   15.9994   O_pbe_v1.2.uspp.F.UPF
H    1.0080   H.pbe-rrkjus_psl.0.1.UPF
C   12.0110   C_pbe_v1.2.uspp.F.UPF
ATOMIC_POSITIONS angstrom
C  6.964839708          9.280612328          13.003514866
O  8.350839708          9.453612328          13.231514866
H  6.802839708          8.651612328          12.124514866
H  6.497839708          10.257612328          12.854514866
H  6.520839708          8.797612328          13.877514866
C  6.863440292          9.801157672          8.710655134
H  6.739440292          9.873157672          7.626655134
H  7.032440292          8.760157672          8.997655134
H  5.963440292          10.174157672          9.202655134
O  7.976440292          10.582157672          9.116655134
H  8.800839708          9.405612328          12.367514866
H  8.713440292          10.349157672          8.529655134
