&control
  calculation='relax'
  restart_mode='from_scratch'
  prefix='scm2020i'
  pseudo_dir='../../../pp'
  etot_conv_thr = 1.0D-3
  forc_conv_thr = 1
  outdir='./out'
  nstep=20000
  max_seconds=14000
  tprnfor=.TRUE.
  tstress=.TRUE.
  disk_io='none'
/
&system
  ibrav=0
  a=4.7604413033
  nat=12
  ntyp=2,
  ecutwfc=70
  ecutrho=280
  nosym=.TRUE.
  occupations='smearing'
  smearing='gaussian'
  degauss=0.02
/
&electrons
  diagonalization='david'
  electron_maxstep = 100
  mixing_beta = 0.7
  conv_thr = 1.0D-3
/
&ions
/
K_POINTS automatic 
2 1 1 0 0 0
CELL_PARAMETERS {alat}
 1.000000000000000   0.000000000000000   0.000000000000000
-0.499999885000000   0.866025470000000   0.000000000000000
 0.000000000000000   0.000000000000000   1.658502956000000

ATOMIC_SPECIES
Nb   92.90638   Nb.pbe-spn-kjpaw_psl.1.0.0.UPF 
Fe   55.84500   Fe.pbe-spn-kjpaw_psl.1.0.0.UPF 

ATOMIC_POSITIONS {angstrom}
Nb 0.06072912441453803 2.7840460961088933 3.460312231076523
Nb 2.3862914289921715 1.460756562249976 4.473663600644872
Nb 2.3802268397006365 1.387061996639591 7.386559603172941
Nb 0.044093849920165164 2.771540643190624 0.5289966688790374
Fe 0.0750701563201906 0.0943529076841919 3.9854574342261726
Fe 0.033522964321625694 0.03799190856976852 0.07998030536663603
Fe -1.1586804309835124 3.430586717459525 5.929415752460437
Fe 0.05495147058682893 1.4440538187514234 5.942907067773101
Fe 1.254420667347218 3.461742300613916 5.928973486847352
Fe 3.5893373799187374 0.7859312520182633 1.9811693985913523
Fe 2.4455959447906173 2.7999766815078475 1.9894108660504972
Fe 1.2678136048412898 0.7814500517556844 2.05566128006608
