&control
  calculation='relax'
  restart_mode='from_scratch'
  prefix='scm2020i'
  pseudo_dir='../../../pp'
  etot_conv_thr = 1.0D-3
  forc_conv_thr = 1
  outdir='./out'
  nstep=20000
  max_seconds=14000
  tprnfor=.TRUE.
  tstress=.TRUE.
  disk_io='none'
/
&system
  ibrav=0
  a=4.7604413033
  nat=12
  ntyp=2,
  ecutwfc=70
  ecutrho=280
  nosym=.TRUE.
  occupations='smearing'
  smearing='gaussian'
  degauss=0.02
/
&electrons
  diagonalization='david'
  electron_maxstep = 100
  mixing_beta = 0.7
  conv_thr = 1.0D-3
/
&ions
/
K_POINTS automatic 
2 1 1 0 0 0
CELL_PARAMETERS {alat}
 1.000000000000000   0.000000000000000   0.000000000000000
-0.499999885000000   0.866025470000000   0.000000000000000
 0.000000000000000   0.000000000000000   1.658502956000000

ATOMIC_SPECIES
Nb   92.90638   Nb.pbe-spn-kjpaw_psl.1.0.0.UPF 
Fe   55.84500   Fe.pbe-spn-kjpaw_psl.1.0.0.UPF 

ATOMIC_POSITIONS {angstrom}
Nb 0.050947975244844505 2.7858736389917937 3.4761416249536587
Nb 2.476342457445948 1.4273079240354771 4.526953869340453
Nb 2.3919723848868713 1.41907698432395 7.402261527854432
Nb 0.09628963837015128 2.7633307641128098 0.5315881728542984
Fe 0.004099175100117147 0.02476554491717158 3.9595326727270352
Fe 0.006719760477659167 0.09897552565764905 0.008794860625476165
Fe -1.0971531563433379 3.4945319814039424 6.018001720527211
Fe 0.013195982229022645 1.4513152301913919 5.939732785503187
Fe 1.1890167081140013 3.5121618448075296 6.014289221245342
Fe 3.606126203424425 0.7796798947850132 2.0607140284855023
Fe 2.384165243168395 2.7471967764149587 2.0634720851259525
Fe 1.2640246517613112 0.752526020636039 2.0110028050276156
