&CONTROL
calculation = 'scf' 
verbosity = 'high',
restart_mode = 'from_scratch',
wf_collect = .true.
nstep = 1000,
tstress = .true.,
tprnfor = .true., 
outdir = './out',
pseudo_dir = '/home/sampa/Lab6/pseudos',
prefix = 'dimer',
/  
&SYSTEM
        ibrav = 0, 
         nat = 12,
         ntyp = 3,
      ecutwfc = 45,
      ecutrho = 200,
    input_dft = 'PBE',
assume_isolated='mt',
/    
&ELECTRONS 
  electron_maxstep = 500,
  mixing_beta = 0.3 
/ 
&IONS 
/
CELL_PARAMETERS angstrom 
10.0000        0.0000        0.0000
0.0000        12.000        0.0000
0.0000        0.0000        12.000
K_POINTS {automatic}
2 1 1 0 0 0
ATOMIC_SPECIES
O   15.9994   O_pbe_v1.2.uspp.F.UPF
H    1.0080   H.pbe-rrkjus_psl.0.1.UPF
C   12.0110   C_pbe_v1.2.uspp.F.UPF
ATOMIC_POSITIONS angstrom
C    8.773019533          9.052366413          12.803416270
O    7.387019533          8.879366413          13.031416270
H    8.935019533          9.681366413          11.924416270
H    9.240019533          8.075366413          12.654416270
H    9.217019533          9.535366413          13.677416270
C    6.843420467          9.598313587          8.552743730
H    6.719420467          9.670313587          7.468743730
H    7.012420467          8.557313587          8.839743730
H    5.943420467          9.971313587          9.044743730
O    7.956420467          10.379313587          8.958743730
H    6.937019533          8.927366413          12.167416270
H    8.693420467          10.146313587          8.371743730
