&CONTROL
calculation = 'scf' 
verbosity = 'high',
restart_mode = 'from_scratch',
wf_collect = .true.
nstep = 1000,
tstress = .true.,
tprnfor = .true., 
outdir = './out',
pseudo_dir = '/home/sampa/Lab6/pseudos',
prefix = 'dimer',
/  
&SYSTEM
        ibrav = 0, 
         nat = 12,
         ntyp = 3,
      ecutwfc = 45,
      ecutrho = 200,
    input_dft = 'PBE',
assume_isolated='mt',
/    
&ELECTRONS 
  electron_maxstep = 500,
  mixing_beta = 0.3 
/ 
&IONS 
/
CELL_PARAMETERS angstrom 
10.0000        0.0000        0.0000
0.0000        12.000        0.0000
0.0000        0.0000        12.000
K_POINTS {automatic}
2 1 1 0 0 0
ATOMIC_SPECIES
O   15.9994   O_pbe_v1.2.uspp.F.UPF
H    1.0080   H.pbe-rrkjus_psl.0.1.UPF
C   12.0110   C_pbe_v1.2.uspp.F.UPF
ATOMIC_POSITIONS angstrom
C   6.975109966          9.501602385          13.525118253
O   6.747109966          9.328602385          12.139118253
H   7.854109966          10.130602385          13.687118253
H   7.124109966          8.524602385          13.992118253
H   6.101109966          9.984602385          13.969118253
C   6.919630034          9.446337615          9.078901747
H   6.795630034          9.518337615          7.994901747
H   7.088630034          8.405337615          9.365901747
H   6.019630034          9.819337615          9.570901747
O   8.032630034          10.227337615          9.484901747
H   7.611109966          9.376602385          11.689118253
H   8.769630034          9.994337615          8.897901747
