&CONTROL
calculation = 'scf' 
verbosity = 'high',
restart_mode = 'from_scratch',
wf_collect = .true.
nstep = 1000,
tstress = .true.,
tprnfor = .true., 
outdir = './out',
pseudo_dir = '/home/sampa/Lab6/pseudos',
prefix = 'dimer',
/  
&SYSTEM
        ibrav = 0, 
         nat = 12,
         ntyp = 3,
      ecutwfc = 45,
      ecutrho = 200,
    input_dft = 'PBE',
assume_isolated='mt',
/    
&ELECTRONS 
  electron_maxstep = 500,
  mixing_beta = 0.3 
/ 
&IONS 
/
CELL_PARAMETERS angstrom 
10.0000        0.0000        0.0000
0.0000        12.000        0.0000
0.0000        0.0000        12.000
K_POINTS {automatic}
2 1 1 0 0 0
ATOMIC_SPECIES
O   15.9994   O_pbe_v1.2.uspp.F.UPF
H    1.0080   H.pbe-rrkjus_psl.0.1.UPF
C   12.0110   C_pbe_v1.2.uspp.F.UPF
ATOMIC_POSITIONS angstrom
C  6.915463271          9.370173819          12.831640764
O  8.301463271          9.543173819          13.059640764
H  6.753463271          8.741173819          11.952640764
H  6.448463271          10.347173819          12.682640764
H  6.471463271          8.887173819          13.705640764
C  6.912816729          9.711596181          8.882529236
H  6.788816729          9.783596181          7.798529236
H  7.081816729          8.670596181          9.169529236
H  6.012816729          10.084596181          9.374529236
O  8.025816729          10.492596181          9.288529236
H  8.751463271          9.495173819          12.195640764
H  8.762816729          10.259596181          8.701529236
