&CONTROL
calculation = 'scf' 
verbosity = 'high',
restart_mode = 'from_scratch',
wf_collect = .true.
nstep = 1000,
tstress = .true.,
tprnfor = .true., 
outdir = './out',
pseudo_dir = '/home/elizane/arquivosqe',
prefix = 'dimer',
/  
&SYSTEM
        ibrav = 0, 
         nat = 12,
         ntyp = 3,
      ecutwfc = 45,
      ecutrho = 200,
    input_dft = 'PBE',
assume_isolated='mt',
/    
&ELECTRONS 
  electron_maxstep = 500,
  mixing_beta = 0.3 
/ 
&IONS 
/
CELL_PARAMETERS angstrom 
15.0000        0.0000        0.0000
0.0000        20.000        0.0000
0.0000        0.0000        25.000
K_POINTS {automatic}
2 1 1 0 0 0
ATOMIC_SPECIES
O   15.9994   O_pbe_v1.2.uspp.F.UPF
H    1.0080   H.pbe-rrkjus_psl.0.1.UPF
C   12.0110   C_pbe_v1.2.uspp.F.UPF
ATOMIC_POSITIONS angstrom
C  6.887982836          9.518749935          13.118977169
O  8.273982836          9.691749935          13.346977169
H  6.725982836          8.889749935          12.239977169
H  6.420982836          10.495749935          12.969977169
H  6.443982836          9.035749935          13.992977169
C  6.940297164          9.563020065          8.595192831
H  6.816297164          9.635020065          7.511192831
H  7.109297164          8.522020065          8.882192831
H  6.040297164          9.936020065          9.087192831
O  8.053297164          10.344020065          9.001192831
H  8.723982836          9.643749935          12.482977169
H  8.790297164          10.111020065          8.414192831
