&CONTROL
calculation = 'scf' 
verbosity = 'high',
restart_mode = 'from_scratch',
wf_collect = .true.
nstep = 1000,
tstress = .true.,
tprnfor = .true., 
outdir = './out',
pseudo_dir = '/home/sampa/Lab6/pseudos',
prefix = 'dimer',
/  
&SYSTEM
        ibrav = 0, 
         nat = 12,
         ntyp = 3,
      ecutwfc = 45,
      ecutrho = 200,
    input_dft = 'PBE',
assume_isolated='mt',
/    
&ELECTRONS 
  electron_maxstep = 500,
  mixing_beta = 0.3 
/ 
&IONS 
/
CELL_PARAMETERS angstrom 
10.0000        0.0000        0.0000
0.0000        12.000        0.0000
0.0000        0.0000        12.000
K_POINTS {automatic}
2 1 1 0 0 0
ATOMIC_SPECIES
O   15.9994   O_pbe_v1.2.uspp.F.UPF
H    1.0080   H.pbe-rrkjus_psl.0.1.UPF
C   12.0110   C_pbe_v1.2.uspp.F.UPF
ATOMIC_POSITIONS angstrom
C      7.588305964          7.528395677          11.785231109
O      8.146421461          6.221789523          11.918972442
H      7.419266639          5.577894644          11.858259534
O      5.822699007          12.682629601          11.117516304
H      5.113332844          13.348545772          11.106353941
C      6.447420515          12.727841924          12.399622566
H      7.292026103          12.025652676          12.363365203
H      5.764838358          12.410155891          13.211223206
H      6.843911685          13.732443260          12.637657572
H      8.432715283          8.232238287          11.807635529
H      6.902337632          7.779030016          12.617219840
H      7.052154507          7.663962728          10.827672755
