&control
  calculation='relax'
  restart_mode='from_scratch'
  prefix='scm2020i'
  pseudo_dir='../../../pp'
  etot_conv_thr = 1.0D-3
  forc_conv_thr = 1
  outdir='./out'
  nstep=20000
  max_seconds=14000
  tprnfor=.TRUE.
  tstress=.TRUE.
  disk_io='none'
/
&system
  ibrav=0
  a=4.7604413033
  nat=12
  ntyp=2,
  ecutwfc=70
  ecutrho=280
  nosym=.TRUE.
  occupations='smearing'
  smearing='gaussian'
  degauss=0.02
/
&electrons
  diagonalization='david'
  electron_maxstep = 100
  mixing_beta = 0.7
  conv_thr = 1.0D-3
/
&ions
/
K_POINTS automatic 
2 1 1 0 0 0
CELL_PARAMETERS {alat}
 1.000000000000000   0.000000000000000   0.000000000000000
-0.499999885000000   0.866025470000000   0.000000000000000
 0.000000000000000   0.000000000000000   1.658502956000000

ATOMIC_SPECIES
Nb   92.90638   Nb.pbe-spn-kjpaw_psl.1.0.0.UPF 
Fe   55.84500   Fe.pbe-spn-kjpaw_psl.1.0.0.UPF 

ATOMIC_POSITIONS {angstrom}
Nb 0.04446237423844852 2.783443690187132 3.5141198555740907
Nb 2.444340689754661 1.4703717978459614 4.470458440095007
Nb 2.4235548607217376 1.389695802239907 7.419348688870208
Nb 0.028960257920776313 2.838633843941485 0.5802997177427158
Fe 0.01719566675561468 0.08453042973046695 4.002205104533064
Fe 0.06978230706999944 0.06964163284063987 0.027166600961233935
Fe -1.0954040445098558 3.502529746646098 6.01311682255351
Fe 0.017225693274296086 1.4069660448998125 5.964740800659447
Fe 1.2511097543082397 3.4726288707470108 5.979045498413574
Fe 3.5823878414153696 0.72122824496904 1.981116093329596
Fe 2.435115251170201 2.8055242615477844 2.0013244472971996
Fe 1.2373566311804882 0.737925710341655 2.043122926596703
