&CONTROL
calculation = 'scf' 
verbosity = 'high',
restart_mode = 'from_scratch',
wf_collect = .true.
nstep = 1000,
tstress = .true.,
tprnfor = .true., 
outdir = './out',
pseudo_dir = '/home/sampa/Lab6/pseudos',
prefix = 'dimer',
/  
&SYSTEM
        ibrav = 0, 
         nat = 12,
         ntyp = 3,
      ecutwfc = 45,
      ecutrho = 200,
    input_dft = 'PBE',
assume_isolated='mt',
/    
&ELECTRONS 
  electron_maxstep = 500,
  mixing_beta = 0.3 
/ 
&IONS 
/
CELL_PARAMETERS angstrom 
10.0000        0.0000        0.0000
0.0000        12.000        0.0000
0.0000        0.0000        12.000
K_POINTS {automatic}
2 1 1 0 0 0
ATOMIC_SPECIES
O   15.9994   O_pbe_v1.2.uspp.F.UPF
H    1.0080   H.pbe-rrkjus_psl.0.1.UPF
C   12.0110   C_pbe_v1.2.uspp.F.UPF
ATOMIC_POSITIONS angstrom
C     7.196194058          8.832381873          11.976263184
O     7.754309555          7.525775719          12.110004517
H     7.027154733          6.881880840          12.049291609
O     6.214810913          11.378643405          10.926484229
H     5.505444750          12.044559576          10.915321866
C     6.839532421          11.423855728          12.208590491
H     7.684138009          10.721666480          12.172333128
H     6.156950264          11.106169695          13.020191131
H     7.236023591          12.428457064          12.446625497
H     8.040603377          9.536224483          11.998667604
H     6.510225726          9.083016212          12.808251915
H     6.660042601          8.967948924          11.018704830
