&control
  calculation='relax'
  restart_mode='from_scratch'
  prefix='scm2020e'
  pseudo_dir='../../../pp'
  etot_conv_thr = 1.0D-6
  forc_conv_thr = 1
  outdir='./out'
  nstep=20000
  max_seconds=14000
  tprnfor=.TRUE.
  tstress=.TRUE.
  disk_io='none'
/
&system
  ibrav=0
  a=5.6251056671
  nat=6
  ntyp=2,
  ecutwfc=140
  ecutrho=560
  nosym=.TRUE.
  occupations='smearing'
  smearing='gaussian'
  degauss=0.02
/
&electrons
  diagonalization='david'
  electron_maxstep = 100
  mixing_beta = 0.7
  conv_thr = 1.0D-6
/
&ions
/
K_POINTS automatic 
2 1 1 0 0 0
CELL_PARAMETERS {alat}
 1.000000000000000   0.000000000000000   0.000000000000000
 0.500000000000000   0.866025404000000   0.000000000000000
 0.500000000000000   0.288675135000000   0.816496581000000

ATOMIC_SPECIES
Nb   92.90638   Nb.pbe-spn-kjpaw_psl.1.0.0.UPF 
Fe   55.84500   Fe.pbe-spn-kjpaw_psl.1.0.0.UPF 

ATOMIC_POSITIONS {angstrom}
Nb 7.356059953377971 4.669599789469835 3.3827884271442725
Nb 0.6201115515543516 0.7676374700027624 0.4753468872138238
Fe 6.331472423275508 2.546525802747815 2.0019127259815757
Fe 5.225605646356331 4.411816104556403 1.694323838896469
Fe 5.216116017228983 3.28504296176446 3.473804693177096
Fe 3.9441304728563824 2.6834568841908277 1.8004183817423094
