&CONTROL
calculation = 'scf' 
verbosity = 'high',
restart_mode = 'from_scratch',
wf_collect = .true.
nstep = 1000,
tstress = .true.,
tprnfor = .true., 
outdir = './out',
pseudo_dir = '/home/sampa/Lab6/pseudos',
prefix = 'dimer',
/  
&SYSTEM
        ibrav = 0, 
         nat = 12,
         ntyp = 3,
      ecutwfc = 45,
      ecutrho = 200,
    input_dft = 'PBE',
assume_isolated='mt',
/    
&ELECTRONS 
  electron_maxstep = 500,
  mixing_beta = 0.3 
/ 
&IONS 
/
CELL_PARAMETERS angstrom 
15.0000        0.0000        0.0000
0.0000        20.000        0.0000
0.0000        0.0000        25.000
K_POINTS {automatic}
2 1 1 0 0 0
ATOMIC_SPECIES
O   15.9994   O_pbe_v1.2.uspp.F.UPF
H    1.0080   H.pbe-rrkjus_psl.0.1.UPF
C   12.0110   C_pbe_v1.2.uspp.F.UPF
ATOMIC_POSITIONS angstrom
C  6.855381544          9.615108023          12.476986301
O  8.241381544          9.788108023          12.704986301
H  6.693381544          8.986108023          11.597986301
H  6.388381544          10.592108023          12.327986301
H  6.411381544          9.132108023          13.350986301
C  6.972898456          9.466661977          9.237183699
H  6.848898456          9.538661977          8.153183699
H  7.141898456          8.425661977          9.524183699
H  6.072898456          9.839661977          9.729183699
O  8.085898456          10.247661977          9.643183699
H  8.691381544          9.740108023          11.840986301
H  8.822898456          10.014661977          9.056183699
