&control
  calculation='relax'
  restart_mode='from_scratch'
  prefix='scm2020b'
  pseudo_dir='../../../pp'
  etot_conv_thr = 1.0D-6
  forc_conv_thr = 1
  outdir='./out'
  nstep=20000
  max_seconds=14000
  tprnfor=.TRUE.
  tstress=.TRUE.
  disk_io='none'
/
&system
  ibrav=0
  a=6.0667870522
  nat=6
  ntyp=2,
  ecutwfc=140
  ecutrho=560
  nosym=.TRUE.
  occupations='smearing'
  smearing='gaussian'
  degauss=0.02
/
&electrons
  diagonalization='david'
  electron_maxstep = 100
  mixing_beta = 0.7
  conv_thr = 1.0D-6
/
&ions
/
K_POINTS automatic 
2 1 1 0 0 0
CELL_PARAMETERS {alat}
 1.000000000000000   0.000000000000000   0.000000000000000
 0.500000000000000   0.866025404000000   0.000000000000000
 0.500000000000000   0.288675135000000   0.816496581000000

ATOMIC_SPECIES
Nb   92.90638   Nb.pbe-spn-kjpaw_psl.1.0.0.UPF 
Fe   55.84500   Fe.pbe-spn-kjpaw_psl.1.0.0.UPF 

ATOMIC_POSITIONS {angstrom}
Nb 5.924786919602095 3.5726976571361564 0.7952007715962701
Nb 5.834431782394478 1.8113359160404248 2.9258108979890953
Nb 4.53839217334631 4.371134366464576 3.465896030363033
Nb 7.102101033549939 4.419795826683937 3.2699684948715433
Fe 3.3083413015890497 1.7031499911066998 1.788938453723477
Fe 0.30773629372965056 0.07268428837515994 0.6446663236585842
