&CONTROL
calculation = 'scf' 
verbosity = 'high',
restart_mode = 'from_scratch',
wf_collect = .true.
nstep = 1000,
tstress = .true.,
tprnfor = .true., 
outdir = './out',
pseudo_dir = '/home/sampa/Lab6/pseudos',
prefix = 'dimer',
/  
&SYSTEM
        ibrav = 0, 
         nat = 12,
         ntyp = 3,
      ecutwfc = 45,
      ecutrho = 200,
    input_dft = 'PBE',
assume_isolated='mt',
/    
&ELECTRONS 
  electron_maxstep = 500,
  mixing_beta = 0.3 
/ 
&IONS 
/
CELL_PARAMETERS angstrom 
15.0000        0.0000        0.0000
0.0000        20.000        0.0000
0.0000        0.0000        25.000
K_POINTS {automatic}
2 1 1 0 0 0
ATOMIC_SPECIES
O   15.9994   O_pbe_v1.2.uspp.F.UPF
H    1.0080   H.pbe-rrkjus_psl.0.1.UPF
C   12.0110   C_pbe_v1.2.uspp.F.UPF
ATOMIC_POSITIONS angstrom
C    6.990698886          9.484585444          12.989619033
O    6.762698886          9.311585444          11.603619033
H    7.869698886          10.113585444          13.151619033
H    7.139698886          8.507585444          13.456619033
H    6.116698886          9.967585444          13.433619033
C    6.904041114          9.463354556          9.614400967
H    6.780041114          9.535354556          8.530400967
H    7.073041114          8.422354556          9.901400967
H    6.004041114          9.836354556          10.106400967
O    8.017041114          10.244354556          10.020400967
H    7.626698886          9.359585444          11.153619033
H    8.754041114          10.011354556          9.433400967
