&control
  calculation='relax'
  restart_mode='from_scratch'
  prefix='scm2020e'
  pseudo_dir='../../../pp'
  etot_conv_thr = 1.0D-6
  forc_conv_thr = 1
  outdir='./out'
  nstep=20000
  max_seconds=14000
  tprnfor=.TRUE.
  tstress=.TRUE.
  disk_io='none'
/
&system
  ibrav=0
  a=5.6251056671
  nat=6
  ntyp=2,
  ecutwfc=140
  ecutrho=560
  nosym=.TRUE.
  occupations='smearing'
  smearing='gaussian'
  degauss=0.02
/
&electrons
  diagonalization='david'
  electron_maxstep = 100
  mixing_beta = 0.7
  conv_thr = 1.0D-6
/
&ions
/
K_POINTS automatic 
2 1 1 0 0 0
CELL_PARAMETERS {alat}
 1.000000000000000   0.000000000000000   0.000000000000000
 0.500000000000000   0.866025404000000   0.000000000000000
 0.500000000000000   0.288675135000000   0.816496581000000

ATOMIC_SPECIES
Nb   92.90638   Nb.pbe-spn-kjpaw_psl.1.0.0.UPF 
Fe   55.84500   Fe.pbe-spn-kjpaw_psl.1.0.0.UPF 

ATOMIC_POSITIONS {angstrom}
Nb 7.344396128256719 4.872530860036499 2.9700213517550815
Nb 0.6845412878658657 0.30157514009205777 0.6312154748946032
Fe 6.575926161096803 2.102815508841056 1.781172045672196
Fe 5.1124686148408385 4.183425988369169 1.9744971393668713
Fe 5.058839164621267 3.412877983418692 3.750732633106999
Fe 3.940325603306574 2.3004163537828126 1.869704620017934
