&CONTROL
calculation = 'scf' 
verbosity = 'high',
restart_mode = 'from_scratch',
wf_collect = .true.
nstep = 1000,
tstress = .true.,
tprnfor = .true., 
outdir = './out',
pseudo_dir = '/home/sampa/Lab6/pseudos',
prefix = 'dimer',
/  
&SYSTEM
        ibrav = 0, 
         nat = 12,
         ntyp = 3,
      ecutwfc = 45,
      ecutrho = 200,
    input_dft = 'PBE',
assume_isolated='mt',
/    
&ELECTRONS 
  electron_maxstep = 500,
  mixing_beta = 0.3 
/ 
&IONS 
/
CELL_PARAMETERS angstrom 
10.0000        0.0000        0.0000
0.0000        12.000        0.0000
0.0000        0.0000        12.000
K_POINTS {automatic}
2 1 1 0 0 0
ATOMIC_SPECIES
O   15.9994   O_pbe_v1.2.uspp.F.UPF
H    1.0080   H.pbe-rrkjus_psl.0.1.UPF
C   12.0110   C_pbe_v1.2.uspp.F.UPF
ATOMIC_POSITIONS angstrom
C  6.829054508          9.526906428          12.530861086
O  8.215054508          9.699906428          12.758861086
H  6.667054508          8.897906428          11.651861086
H  6.362054508          10.503906428          12.381861086
H  6.385054508          9.043906428          13.404861086
C  6.999225492          9.554863572          9.183308914
H  6.875225492          9.626863572          8.099308914
H  7.168225492          8.513863572          9.470308914
H  6.099225492          9.927863572          9.675308914
O  8.112225492          10.335863572          9.589308914
H  8.665054508          9.651906428          11.894861086
H  8.849225492          10.102863572          9.002308914
