&CONTROL
calculation = 'scf' 
verbosity = 'high',
restart_mode = 'from_scratch',
wf_collect = .true.
nstep = 1000,
tstress = .true.,
tprnfor = .true., 
outdir = './out',
pseudo_dir = '/home/sampa/Lab6/pseudos',
prefix = 'dimer',
/  
&SYSTEM
        ibrav = 0, 
         nat = 12,
         ntyp = 3,
      ecutwfc = 45,
      ecutrho = 200,
    input_dft = 'PBE',
assume_isolated='mt',
/    
&ELECTRONS 
  electron_maxstep = 500,
  mixing_beta = 0.3 
/ 
&IONS 
/
CELL_PARAMETERS angstrom 
10.0000        0.0000        0.0000
0.0000        12.000        0.0000
0.0000        0.0000        12.000
K_POINTS {automatic}
2 1 1 0 0 0
ATOMIC_SPECIES
O   15.9994   O_pbe_v1.2.uspp.F.UPF
H    1.0080   H.pbe-rrkjus_psl.0.1.UPF
C   12.0110   C_pbe_v1.2.uspp.F.UPF
ATOMIC_POSITIONS angstrom
C   6.904856622          9.359813180          13.892487670
O   6.676856622          9.186813180          12.506487670
H   7.783856622          9.988813180          14.054487670
H   7.053856622          8.382813180          14.359487670
H   6.030856622          9.842813180          14.336487670
C   6.989883378          9.588126820          8.711532330
H   6.865883378          9.660126820          7.627532330
H   7.158883378          8.547126820          8.998532330
H   6.089883378          9.961126820          9.203532330
O   8.102883378          10.369126820          9.117532330
H   7.540856622          9.234813180          12.056487670
H   8.839883378          10.136126820          8.530532330
