&CONTROL
calculation = 'scf' 
verbosity = 'high',
restart_mode = 'from_scratch',
wf_collect = .true.
nstep = 1000,
tstress = .true.,
tprnfor = .true., 
outdir = './out',
pseudo_dir = '/home/sampa/Lab6/pseudos',
prefix = 'dimer',
/  
&SYSTEM
        ibrav = 0, 
         nat = 12,
         ntyp = 3,
      ecutwfc = 45,
      ecutrho = 200,
    input_dft = 'PBE',
assume_isolated='mt',
/    
&ELECTRONS 
  electron_maxstep = 500,
  mixing_beta = 0.3 
/ 
&IONS 
/
CELL_PARAMETERS angstrom 
15.0000        0.0000        0.0000
0.0000        20.000        0.0000
0.0000        0.0000        25.000
K_POINTS {automatic}
2 1 1 0 0 0
ATOMIC_SPECIES
O   15.9994   O_pbe_v1.2.uspp.F.UPF
H    1.0080   H.pbe-rrkjus_psl.0.1.UPF
C   12.0110   C_pbe_v1.2.uspp.F.UPF
ATOMIC_POSITIONS angstrom
C    8.516090638          9.417731529          11.689685756
O    7.130090638          9.244731529          11.917685756
H    8.678090638          10.046731529          10.810685756
H    8.983090638          8.440731529          11.540685756
H    8.960090638          9.900731529          12.563685756
C    7.100349362          9.232948471          9.666474244
H    6.976349362          9.304948471          8.582474244
H    7.269349362          8.191948471          9.953474244
H    6.200349362          9.605948471          10.158474244
O    8.213349362          10.013948471          10.072474244
H    6.680090638          9.292731529          11.053685756
H    8.950349362          9.780948471          9.485474244
