&CONTROL
calculation = 'scf' 
verbosity = 'high',
restart_mode = 'from_scratch',
wf_collect = .true.
nstep = 1000,
tstress = .true.,
tprnfor = .true., 
outdir = './out',
pseudo_dir = '/home/sampa/Lab6/pseudos',
prefix = 'dimer',
/  
&SYSTEM
        ibrav = 0, 
         nat = 12,
         ntyp = 3,
      ecutwfc = 45,
      ecutrho = 200,
    input_dft = 'PBE',
assume_isolated='mt',
/    
&ELECTRONS 
  electron_maxstep = 500,
  mixing_beta = 0.3 
/ 
&IONS 
/
CELL_PARAMETERS angstrom 
10.0000        0.0000        0.0000
0.0000        12.000        0.0000
0.0000        0.0000        12.000
K_POINTS {automatic}
2 1 1 0 0 0
ATOMIC_SPECIES
O   15.9994   O_pbe_v1.2.uspp.F.UPF
H    1.0080   H.pbe-rrkjus_psl.0.1.UPF
C   12.0110   C_pbe_v1.2.uspp.F.UPF
ATOMIC_POSITIONS angstrom
C     7.410073279          8.121116675          11.872063870
O     7.968188776          6.814510521          12.005805203
H     7.241033954          6.170615642          11.945092295
O     6.000931692          12.089908603          11.030683543
H     5.291565529          12.755824774          11.019521180
C     6.625653200          12.135120926          12.312789805
H     7.470258788          11.432931678          12.276532442
H     5.943071043          11.817434893          13.124390445
H     7.022144370          13.139722262          12.550824811
H     8.254482598          8.824959285          11.894468290
H     6.724104947          8.371751014          12.704052601
H     6.873921822          8.256683726          10.914505516
