&CONTROL
calculation = 'scf' 
verbosity = 'high',
restart_mode = 'from_scratch',
wf_collect = .true.
nstep = 1000,
tstress = .true.,
tprnfor = .true., 
outdir = './out',
pseudo_dir = '/home/sampa/Lab6/pseudos',
prefix = 'dimer',
/  
&SYSTEM
        ibrav = 0, 
         nat = 12,
         ntyp = 3,
      ecutwfc = 45,
      ecutrho = 200,
    input_dft = 'PBE',
assume_isolated='mt',
/    
&ELECTRONS 
  electron_maxstep = 500,
  mixing_beta = 0.3 
/ 
&IONS 
/
CELL_PARAMETERS angstrom 
10.0000        0.0000        0.0000
0.0000        12.000        0.0000
0.0000        0.0000        12.000
K_POINTS {automatic}
2 1 1 0 0 0
ATOMIC_SPECIES
O   15.9994   O_pbe_v1.2.uspp.F.UPF
H    1.0080   H.pbe-rrkjus_psl.0.1.UPF
C   12.0110   C_pbe_v1.2.uspp.F.UPF
ATOMIC_POSITIONS angstrom
C   6.948764961          9.448431434          13.662881784
O   6.720764961          9.275431434          12.276881784
H   7.827764961          10.077431434          13.824881784
H   7.097764961          8.471431434          14.129881784
H   6.074764961          9.931431434          14.106881784
C   6.945975039          9.499508566          8.941138216
H   6.821975039          9.571508566          7.857138216
H   7.114975039          8.458508566          9.228138216
H   6.045975039          9.872508566          9.433138216
O   8.058975039          10.280508566          9.347138216
H   7.584764961          9.323431434          11.826881784
H   8.795975039          10.047508566          8.760138216
