&CONTROL
calculation = 'scf' 
verbosity = 'high',
restart_mode = 'from_scratch',
wf_collect = .true.
nstep = 1000,
tstress = .true.,
tprnfor = .true., 
outdir = './out',
pseudo_dir = '/home/sampa/Lab6/pseudos',
prefix = 'dimer',
/  
&SYSTEM
        ibrav = 0, 
         nat = 12,
         ntyp = 3,
      ecutwfc = 45,
      ecutrho = 200,
    input_dft = 'PBE',
assume_isolated='mt',
/    
&ELECTRONS 
  electron_maxstep = 500,
  mixing_beta = 0.3 
/ 
&IONS 
/
CELL_PARAMETERS angstrom 
15.0000        0.0000        0.0000
0.0000        20.000        0.0000
0.0000        0.0000        25.000
K_POINTS {automatic}
2 1 1 0 0 0
ATOMIC_SPECIES
O   15.9994   O_pbe_v1.2.uspp.F.UPF
H    1.0080   H.pbe-rrkjus_psl.0.1.UPF
C   12.0110   C_pbe_v1.2.uspp.F.UPF
ATOMIC_POSITIONS angstrom
C    6.987165331          9.480791216          13.039349484
O    6.759165331          9.307791216          11.653349484
H    7.866165331          10.109791216          13.201349484
H    7.136165331          8.503791216          13.506349484
H    6.113165331          9.963791216          13.483349484
C    6.907574669          9.467148784          9.564670516
H    6.783574669          9.539148784          8.480670516
H    7.076574669          8.426148784          9.851670516
H    6.007574669          9.840148784          10.056670516
O    8.020574669          10.248148784          9.970670516
H    7.623165331          9.355791216          11.203349484
H    8.757574669          10.015148784          9.383670516
