&CONTROL
calculation = 'scf' 
verbosity = 'high',
restart_mode = 'from_scratch',
wf_collect = .true.
nstep = 1000,
tstress = .true.,
tprnfor = .true., 
outdir = './out',
pseudo_dir = '/home/sampa/Lab6/pseudos',
prefix = 'dimer',
/  
&SYSTEM
        ibrav = 0, 
         nat = 12,
         ntyp = 3,
      ecutwfc = 45,
      ecutrho = 200,
    input_dft = 'PBE',
assume_isolated='mt',
/    
&ELECTRONS 
  electron_maxstep = 500,
  mixing_beta = 0.3 
/ 
&IONS 
/
CELL_PARAMETERS angstrom 
10.0000        0.0000        0.0000
0.0000        12.000        0.0000
0.0000        0.0000        12.000
K_POINTS {automatic}
2 1 1 0 0 0
ATOMIC_SPECIES
O   15.9994   O_pbe_v1.2.uspp.F.UPF
H    1.0080   H.pbe-rrkjus_psl.0.1.UPF
C   12.0110   C_pbe_v1.2.uspp.F.UPF
ATOMIC_POSITIONS angstrom
C  6.668581090          9.817981273          11.972270255
O  8.054581090          9.990981273          12.200270255
H  6.506581090          9.188981273          11.093270255
H  6.201581090          10.794981273          11.823270255
H  6.224581090          9.334981273          12.846270255
C  7.159698910          9.263788727          9.741899745
H  7.035698910          9.335788727          8.657899745
H  7.328698910          8.222788727          10.028899745
H  6.259698910          9.636788727          10.233899745
O  8.272698910          10.044788727          10.147899745
H  8.504581090          9.942981273          11.336270255
H  9.009698910          9.811788727          9.560899745
