&CONTROL
calculation = 'scf' 
verbosity = 'high',
restart_mode = 'from_scratch',
wf_collect = .true.
nstep = 1000,
tstress = .true.,
tprnfor = .true., 
outdir = './out',
pseudo_dir = '/home/sampa/Lab6/pseudos',
prefix = 'dimer',
/  
&SYSTEM
        ibrav = 0, 
         nat = 12,
         ntyp = 3,
      ecutwfc = 45,
      ecutrho = 200,
    input_dft = 'PBE',
assume_isolated='mt',
/    
&ELECTRONS 
  electron_maxstep = 500,
  mixing_beta = 0.3 
/ 
&IONS 
/
CELL_PARAMETERS angstrom 
10.0000        0.0000        0.0000
0.0000        12.000        0.0000
0.0000        0.0000        12.000
K_POINTS {automatic}
2 1 1 0 0 0
ATOMIC_SPECIES
O   15.9994   O_pbe_v1.2.uspp.F.UPF
H    1.0080   H.pbe-rrkjus_psl.0.1.UPF
C   12.0110   C_pbe_v1.2.uspp.F.UPF
ATOMIC_POSITIONS angstrom
C    8.727147701          9.085082686          12.664400369
O    7.341147701          8.912082686          12.892400369
H    8.889147701          9.714082686          11.785400369
H    9.194147701          8.108082686          12.515400369
H    9.171147701          9.568082686          13.538400369
C    6.889292299          9.565597314          8.691759631
H    6.765292299          9.637597314          7.607759631
H    7.058292299          8.524597314          8.978759631
H    5.989292299          9.938597314          9.183759631
O    8.002292299          10.346597314          9.097759631
H    6.891147701          8.960082686          12.028400369
H    8.739292299          10.113597314          8.510759631
