&control
  calculation='relax'
  restart_mode='from_scratch'
  prefix='scm2020d'
  pseudo_dir='../../../pp'
  etot_conv_thr = 1.0D-6
  forc_conv_thr = 1
  outdir='./out'
  nstep=20000
  max_seconds=14000
  tprnfor=.TRUE.
  tstress=.TRUE.
  disk_io='none'
/
&system
  ibrav=0
  a=4.8432991982
  nat=4
  ntyp=2,
  ecutwfc=140
  ecutrho=560
  nosym=.TRUE.
  occupations='smearing'
  smearing='gaussian'
  degauss=0.02
/
&electrons
  diagonalization='david'
  electron_maxstep = 100
  mixing_beta = 0.7
  conv_thr = 1.0D-6
/
&ions
/
K_POINTS automatic 
2 1 1 0 0 0
CELL_PARAMETERS {alat}
 1.000000000000000   0.000000000000000   0.000000000000000
 0.000000000000000   1.000000000000000   0.000000000000000
 0.000000000000000   0.000000000000000   1.000000000000000

ATOMIC_SPECIES
Nb   92.90638   Nb.pbe-spn-kjpaw_psl.1.0.0.UPF 
Fe   55.84500   Fe.pbe-spn-kjpaw_psl.1.0.0.UPF 

ATOMIC_POSITIONS {angstrom}
Nb 0.555566349805896 2.565525363825211 2.4165757612375693
Nb 2.4631596937702924 2.4978356174606686 0.6906000556887373
Nb 2.4748205512781283 0.48962114987025046 2.3677006455145655
Fe 0.11135334191970697 0.11752692562295936 0.4550434882800393
