&control
  calculation='relax'
  restart_mode='from_scratch'
  prefix='scm2020i'
  pseudo_dir='../../../pp'
  etot_conv_thr = 1.0D-3
  forc_conv_thr = 1
  outdir='./out'
  nstep=20000
  max_seconds=14000
  tprnfor=.TRUE.
  tstress=.TRUE.
  disk_io='none'
/
&system
  ibrav=0
  a=4.7604413033
  nat=12
  ntyp=2,
  ecutwfc=70
  ecutrho=280
  nosym=.TRUE.
  occupations='smearing'
  smearing='gaussian'
  degauss=0.02
/
&electrons
  diagonalization='david'
  electron_maxstep = 100
  mixing_beta = 0.7
  conv_thr = 1.0D-3
/
&ions
/
K_POINTS automatic 
2 1 1 0 0 0
CELL_PARAMETERS {alat}
 1.000000000000000   0.000000000000000   0.000000000000000
-0.499999885000000   0.866025470000000   0.000000000000000
 0.000000000000000   0.000000000000000   1.658502956000000

ATOMIC_SPECIES
Nb   92.90638   Nb.pbe-spn-kjpaw_psl.1.0.0.UPF 
Fe   55.84500   Fe.pbe-spn-kjpaw_psl.1.0.0.UPF 

ATOMIC_POSITIONS {angstrom}
Nb 0.055247681429357216 2.8440470745221935 3.4266805604390775
Nb 2.3971367159144004 1.4183110238258443 4.542626779940069
Nb 2.4593672629171017 1.4613358193911785 7.466368963266524
Nb 0.05646794165273597 2.788937892994421 0.559765353392708
Fe 0.0805195469547102 0.08641233527784023 3.9941877928494547
Fe 0.04640779545007402 0.049904974745800725 0.048059590914085716
Fe -1.0888596227022884 3.5203074751676153 5.978522065459874
Fe 0.03465151619867976 1.4671164709183038 5.993079773344061
Fe 1.2540264726557862 3.435278625302499 5.999008851075877
Fe 3.630884704794714 0.7453814976483549 2.0737246752092244
Fe 2.4546390264072815 2.7470095480066736 2.0426796935046614
Fe 1.26760379474974 0.7609077169284169 2.014932945530549
