&CONTROL
calculation = 'scf' 
verbosity = 'high',
restart_mode = 'from_scratch',
wf_collect = .true.
nstep = 1000,
tstress = .true.,
tprnfor = .true., 
outdir = './out',
pseudo_dir = '/home/sampa/Lab6/pseudos',
prefix = 'dimer',
/  
&SYSTEM
        ibrav = 0, 
         nat = 12,
         ntyp = 3,
      ecutwfc = 45,
      ecutrho = 200,
    input_dft = 'PBE',
assume_isolated='mt',
/    
&ELECTRONS 
  electron_maxstep = 500,
  mixing_beta = 0.3 
/ 
&IONS 
/
CELL_PARAMETERS angstrom 
10.0000        0.0000        0.0000
0.0000        12.000        0.0000
0.0000        0.0000        12.000
K_POINTS {automatic}
2 1 1 0 0 0
ATOMIC_SPECIES
O   15.9994   O_pbe_v1.2.uspp.F.UPF
H    1.0080   H.pbe-rrkjus_psl.0.1.UPF
C   12.0110   C_pbe_v1.2.uspp.F.UPF
ATOMIC_POSITIONS angstrom
C  6.761161908          9.650053478          12.294534196
O  8.147161908          9.823053478          12.522534196
H  6.599161908          9.021053478          11.415534196
H  6.294161908          10.627053478          12.145534196
H  6.317161908          9.167053478          13.168534196
C  7.067118092          9.431716522          9.419635804
H  6.943118092          9.503716522          8.335635804
H  7.236118092          8.390716522          9.706635804
H  6.167118092          9.804716522          9.911635804
O  8.180118092          10.212716522          9.825635804
H  8.597161908          9.775053478          11.658534196
H  8.917118092          9.979716522          9.238635804
