&CONTROL
calculation = 'scf' 
verbosity = 'high',
restart_mode = 'from_scratch',
wf_collect = .true.
nstep = 1000,
tstress = .true.,
tprnfor = .true., 
outdir = './out',
pseudo_dir = '/home/sampa/Lab6/pseudos',
prefix = 'dimer',
/  
&SYSTEM
        ibrav = 0, 
         nat = 12,
         ntyp = 3,
      ecutwfc = 45,
      ecutrho = 200,
    input_dft = 'PBE',
assume_isolated='mt',
/    
&ELECTRONS 
  electron_maxstep = 500,
  mixing_beta = 0.3 
/ 
&IONS 
/
CELL_PARAMETERS angstrom 
10.0000        0.0000        0.0000
0.0000        12.000        0.0000
0.0000        0.0000        12.000
K_POINTS {automatic}
2 1 1 0 0 0
ATOMIC_SPECIES
O   15.9994   O_pbe_v1.2.uspp.F.UPF
H    1.0080   H.pbe-rrkjus_psl.0.1.UPF
C   12.0110   C_pbe_v1.2.uspp.F.UPF
ATOMIC_POSITIONS angstrom
C     7.431461201          8.049990156          11.861643939
O     7.989576698          6.743384002          11.995385272
H     7.262421876          6.099489123          11.934672364
O     5.979543770          12.161035122          11.041103474
H     5.270177607          12.826951293          11.029941111
C     6.604265278          12.206247445          12.323209736
H     7.448870866          11.504058197          12.286952373
H     5.921683121          11.888561412          13.134810376
H     7.000756448          13.210848781          12.561244742
H     8.275870520          8.753832766          11.884048359
H     6.745492869          8.300624495          12.693632670
H     6.895309744          8.185557207          10.904085585
