&control
  calculation='relax'
  restart_mode='from_scratch'
  prefix='scm2020i'
  pseudo_dir='../../../pp'
  etot_conv_thr = 1.0D-3
  forc_conv_thr = 1
  outdir='./out'
  nstep=20000
  max_seconds=14000
  tprnfor=.TRUE.
  tstress=.TRUE.
  disk_io='none'
/
&system
  ibrav=0
  a=4.7604413033
  nat=12
  ntyp=2,
  ecutwfc=70
  ecutrho=280
  nosym=.TRUE.
  occupations='smearing'
  smearing='gaussian'
  degauss=0.02
/
&electrons
  diagonalization='david'
  electron_maxstep = 100
  mixing_beta = 0.7
  conv_thr = 1.0D-3
/
&ions
/
K_POINTS automatic 
2 1 1 0 0 0
CELL_PARAMETERS {alat}
 1.000000000000000   0.000000000000000   0.000000000000000
-0.499999885000000   0.866025470000000   0.000000000000000
 0.000000000000000   0.000000000000000   1.658502956000000

ATOMIC_SPECIES
Nb   92.90638   Nb.pbe-spn-kjpaw_psl.1.0.0.UPF 
Fe   55.84500   Fe.pbe-spn-kjpaw_psl.1.0.0.UPF 

ATOMIC_POSITIONS {angstrom}
Nb 0.012004461971255908 2.7987564210178424 3.4482730510113098
Nb 2.408550421302012 1.440562239805747 4.508779205976026
Nb 2.4432459541874905 1.4494988015814882 7.394754567109527
Nb 0.0482406502708188 2.751850785996079 0.5620105599552319
Fe 0.03869864508132956 0.04187237073955572 3.9627572797149315
Fe 0.07237208095159574 0.03671214044401433 0.055376948524221384
Fe -1.0925367718875802 3.5168189615741987 5.948407918711162
Fe 0.06708044076703112 1.4202483707181746 6.015364115164368
Fe 1.2081021419041091 3.4767796698751385 5.96741319024789
Fe 3.5510409033790613 0.7159498574134388 1.9882983338169622
Fe 2.380997294880257 2.766011169022452 2.042228856947425
Fe 1.2579461149917517 0.7556209543187994 2.0265991978830447
