&CONTROL
calculation = 'scf' 
verbosity = 'high',
restart_mode = 'from_scratch',
wf_collect = .true.
nstep = 1000,
tstress = .true.,
tprnfor = .true., 
outdir = './out',
pseudo_dir = '/home/sampa/Lab6/pseudos',
prefix = 'dimer',
/  
&SYSTEM
        ibrav = 0, 
         nat = 12,
         ntyp = 3,
      ecutwfc = 45,
      ecutrho = 200,
    input_dft = 'PBE',
assume_isolated='mt',
/    
&ELECTRONS 
  electron_maxstep = 500,
  mixing_beta = 0.3 
/ 
&IONS 
/
CELL_PARAMETERS angstrom 
10.0000        0.0000        0.0000
0.0000        12.000        0.0000
0.0000        0.0000        12.000
K_POINTS {automatic}
2 1 1 0 0 0
ATOMIC_SPECIES
O   15.9994   O_pbe_v1.2.uspp.F.UPF
H    1.0080   H.pbe-rrkjus_psl.0.1.UPF
C   12.0110   C_pbe_v1.2.uspp.F.UPF
ATOMIC_POSITIONS angstrom
C     7.374426742          8.239660875          11.889430423
O     7.932542239          6.933054721          12.023171756
H     7.205387417          6.289159842          11.962458848
O     6.036578229          11.971364403          11.013316990
H     5.327212066          12.637280574          11.002154627
C     6.661299737          12.016576726          12.295423252
H     7.505905325          11.314387478          12.259165889
H     5.978717580          11.698890693          13.107023892
H     7.057790907          13.021178062          12.533458258
H     8.218836061          8.943503485          11.911834843
H     6.688458410          8.490295214          12.721419154
H     6.838275285          8.375227926          10.931872069
