&CONTROL
calculation = 'scf' 
verbosity = 'high',
restart_mode = 'from_scratch',
wf_collect = .true.
nstep = 1000,
tstress = .true.,
tprnfor = .true., 
outdir = './out',
pseudo_dir = '/home/sampa/Lab6/pseudos',
prefix = 'dimer',
/  
&SYSTEM
        ibrav = 0, 
         nat = 12,
         ntyp = 3,
      ecutwfc = 45,
      ecutrho = 200,
    input_dft = 'PBE',
assume_isolated='mt',
/    
&ELECTRONS 
  electron_maxstep = 500,
  mixing_beta = 0.3 
/ 
&IONS 
/
CELL_PARAMETERS angstrom 
10.0000        0.0000        0.0000
0.0000        12.000        0.0000
0.0000        0.0000        12.000
K_POINTS {automatic}
2 1 1 0 0 0
ATOMIC_SPECIES
O   15.9994   O_pbe_v1.2.uspp.F.UPF
H    1.0080   H.pbe-rrkjus_psl.0.1.UPF
C   12.0110   C_pbe_v1.2.uspp.F.UPF
ATOMIC_POSITIONS angstrom
C     7.360168128          8.287078555          11.896377044
O     7.918283625          6.980472401          12.030118377
H     7.191128803          6.336577522          11.969405469
O     6.050836843          11.923946723          11.006370369
H     5.341470680          12.589862894          10.995208006
C     6.675558351          11.969159046          12.288476631
H     7.520163939          11.266969798          12.252219268
H     5.992976194          11.651473013          13.100077271
H     7.072049521          12.973760382          12.526511637
H     8.204577447          8.990921165          11.918781464
H     6.674199796          8.537712894          12.728365775
H     6.824016671          8.422645606          10.938818690
