&CONTROL
calculation = 'scf' 
verbosity = 'high',
restart_mode = 'from_scratch',
wf_collect = .true.
nstep = 1000,
tstress = .true.,
tprnfor = .true., 
outdir = './out',
pseudo_dir = '/home/sampa/Lab6/pseudos',
prefix = 'dimer',
/  
&SYSTEM
        ibrav = 0, 
         nat = 12,
         ntyp = 3,
      ecutwfc = 45,
      ecutrho = 200,
    input_dft = 'PBE',
assume_isolated='mt',
/    
&ELECTRONS 
  electron_maxstep = 500,
  mixing_beta = 0.3 
/ 
&IONS 
/
CELL_PARAMETERS angstrom 
10.0000        0.0000        0.0000
0.0000        12.000        0.0000
0.0000        0.0000        12.000
K_POINTS {automatic}
2 1 1 0 0 0
ATOMIC_SPECIES
O   15.9994   O_pbe_v1.2.uspp.F.UPF
H    1.0080   H.pbe-rrkjus_psl.0.1.UPF
C   12.0110   C_pbe_v1.2.uspp.F.UPF
ATOMIC_POSITIONS angstrom
C    8.589532208          9.183231508          12.247352669
O    7.203532208          9.010231508          12.475352669
H    8.751532208          9.812231508          11.368352669
H    9.056532208          8.206231508          12.098352669
H    9.033532208          9.666231508          13.121352669
C    7.026907792          9.467448492          9.108807331
H    6.902907792          9.539448492          8.024807331
H    7.195907792          8.426448492          9.395807331
H    6.126907792          9.840448492          9.600807331
O    8.139907792          10.248448492          9.514807331
H    6.753532208          9.058231508          11.611352669
H    8.876907792          10.015448492          8.927807331
