&CONTROL
calculation = 'scf' 
verbosity = 'high',
restart_mode = 'from_scratch',
wf_collect = .true.
nstep = 1000,
tstress = .true.,
tprnfor = .true., 
outdir = './out',
pseudo_dir = '/home/sampa/Lab6/pseudos',
prefix = 'dimer',
/  
&SYSTEM
        ibrav = 0, 
         nat = 12,
         ntyp = 3,
      ecutwfc = 45,
      ecutrho = 200,
    input_dft = 'PBE',
assume_isolated='mt',
/    
&ELECTRONS 
  electron_maxstep = 500,
  mixing_beta = 0.3 
/ 
&IONS 
/
CELL_PARAMETERS angstrom 
10.0000        0.0000        0.0000
0.0000        12.000        0.0000
0.0000        0.0000        12.000
K_POINTS {automatic}
2 1 1 0 0 0
ATOMIC_SPECIES
O   15.9994   O_pbe_v1.2.uspp.F.UPF
H    1.0080   H.pbe-rrkjus_psl.0.1.UPF
C   12.0110   C_pbe_v1.2.uspp.F.UPF
ATOMIC_POSITIONS angstrom
C     7.559788734          7.623231037          11.799124350
O     8.117904231          6.316624883          11.932865683
H     7.390749409          5.672730004          11.872152775
O     5.851216237          12.587794241          11.103623063
H     5.141850074          13.253710412          11.092460700
C     6.475937745          12.633006564          12.385729325
H     7.320543333          11.930817316          12.349471962
H     5.793355588          12.315320531          13.197329965
H     6.872428915          13.637607900          12.623764331
H     8.404198053          8.327073647          11.821528770
H     6.873820402          7.873865376          12.631113081
H     7.023637277          7.758798088          10.841565996
