&control
  calculation='relax'
  restart_mode='from_scratch'
  prefix='scm2020i'
  pseudo_dir='../../../pp'
  etot_conv_thr = 1.0D-3
  forc_conv_thr = 1
  outdir='./out'
  nstep=20000
  max_seconds=14000
  tprnfor=.TRUE.
  tstress=.TRUE.
  disk_io='none'
/
&system
  ibrav=0
  a=4.7604413033
  nat=12
  ntyp=2,
  ecutwfc=70
  ecutrho=280
  nosym=.TRUE.
  occupations='smearing'
  smearing='gaussian'
  degauss=0.02
/
&electrons
  diagonalization='david'
  electron_maxstep = 100
  mixing_beta = 0.7
  conv_thr = 1.0D-3
/
&ions
/
K_POINTS automatic 
2 1 1 0 0 0
CELL_PARAMETERS {alat}
 1.000000000000000   0.000000000000000   0.000000000000000
-0.499999885000000   0.866025470000000   0.000000000000000
 0.000000000000000   0.000000000000000   1.658502956000000

ATOMIC_SPECIES
Nb   92.90638   Nb.pbe-spn-kjpaw_psl.1.0.0.UPF 
Fe   55.84500   Fe.pbe-spn-kjpaw_psl.1.0.0.UPF 

ATOMIC_POSITIONS {angstrom}
Nb 0.013830067127863289 2.757427712280075 3.518361683061461
Nb 2.476204087197333 1.4568957749766287 4.479568447145242
Nb 2.4420655810847114 1.4062884621802778 7.377810065142569
Nb 0.051120080616051784 2.818571452278972 0.5590130579310499
Fe 0.033774244305792886 0.09396650109521205 4.034432542366307
Fe 0.06676924925681009 0.056916044581329296 0.048801844322548506
Fe -1.1072383034063036 3.477084154946745 5.9677642295388935
Fe 0.025106405242059274 1.5015726636762539 6.001463856783653
Fe 1.2235969992200153 3.494956597305724 5.9932013605618355
Fe 3.633762872159451 0.704504093066844 2.0309131434334287
Fe 2.4554873175302703 2.7353060135750074 2.0276562597491123
Fe 1.2789535861993946 0.7252768379886709 2.0251023500576406
