&CONTROL
calculation = 'scf' 
verbosity = 'high',
restart_mode = 'from_scratch',
wf_collect = .true.
nstep = 1000,
tstress = .true.,
tprnfor = .true., 
outdir = './out',
pseudo_dir = '/home/sampa/Lab6/pseudos',
prefix = 'dimer',
/  
&SYSTEM
        ibrav = 0, 
         nat = 12,
         ntyp = 3,
      ecutwfc = 45,
      ecutrho = 200,
    input_dft = 'PBE',
assume_isolated='mt',
/    
&ELECTRONS 
  electron_maxstep = 500,
  mixing_beta = 0.3 
/ 
&IONS 
/
CELL_PARAMETERS angstrom 
10.0000        0.0000        0.0000
0.0000        12.000        0.0000
0.0000        0.0000        12.000
K_POINTS {automatic}
2 1 1 0 0 0
ATOMIC_SPECIES
O   15.9994   O_pbe_v1.2.uspp.F.UPF
H    1.0080   H.pbe-rrkjus_psl.0.1.UPF
C   12.0110   C_pbe_v1.2.uspp.F.UPF
ATOMIC_POSITIONS angstrom
C    8.711857091          9.095988111          12.618061736
O    7.325857091          8.922988111          12.846061736
H    8.873857091          9.724988111          11.739061736
H    9.178857091          8.118988111          12.469061736
H    9.155857091          9.578988111          13.492061736
C    6.904582909          9.554691889          8.738098264
H    6.780582909          9.626691889          7.654098264
H    7.073582909          8.513691889          9.025098264
H    6.004582909          9.927691889          9.230098264
O    8.017582909          10.335691889          9.144098264
H    6.875857091          8.970988111          11.982061736
H    8.754582909          10.102691889          8.557098264
