&control
  calculation='relax'
  restart_mode='from_scratch'
  prefix='scm2020d'
  pseudo_dir='../../../pp'
  etot_conv_thr = 1.0D-6
  forc_conv_thr = 1
  outdir='./out'
  nstep=20000
  max_seconds=14000
  tprnfor=.TRUE.
  tstress=.TRUE.
  disk_io='none'
/
&system
  ibrav=0
  a=4.8432991982
  nat=4
  ntyp=2,
  ecutwfc=140
  ecutrho=560
  nosym=.TRUE.
  occupations='smearing'
  smearing='gaussian'
  degauss=0.02
/
&electrons
  diagonalization='david'
  electron_maxstep = 100
  mixing_beta = 0.7
  conv_thr = 1.0D-6
/
&ions
/
K_POINTS automatic 
2 1 1 0 0 0
CELL_PARAMETERS {alat}
 1.000000000000000   0.000000000000000   0.000000000000000
 0.000000000000000   1.000000000000000   0.000000000000000
 0.000000000000000   0.000000000000000   1.000000000000000

ATOMIC_SPECIES
Nb   92.90638   Nb.pbe-spn-kjpaw_psl.1.0.0.UPF 
Fe   55.84500   Fe.pbe-spn-kjpaw_psl.1.0.0.UPF 

ATOMIC_POSITIONS {angstrom}
Nb 0.4819755778859331 2.6104849346158003 2.196222710913185
Nb 2.7296165263143006 2.172466671196893 0.5681653614256309
Nb 2.4005937361900256 0.2777029128989257 2.357935051341232
Fe 0.10000617068264672 0.48456878264234454 0.4150101495783429
