&CONTROL
calculation = 'scf' 
verbosity = 'high',
restart_mode = 'from_scratch',
wf_collect = .true.
nstep = 1000,
tstress = .true.,
tprnfor = .true., 
outdir = './out',
pseudo_dir = '/home/sampa/Lab6/pseudos',
prefix = 'dimer',
/  
&SYSTEM
        ibrav = 0, 
         nat = 12,
         ntyp = 3,
      ecutwfc = 45,
      ecutrho = 200,
    input_dft = 'PBE',
assume_isolated='mt',
/    
&ELECTRONS 
  electron_maxstep = 500,
  mixing_beta = 0.3 
/ 
&IONS 
/
CELL_PARAMETERS angstrom 
10.0000        0.0000        0.0000
0.0000        12.000        0.0000
0.0000        0.0000        12.000
K_POINTS {automatic}
2 1 1 0 0 0
ATOMIC_SPECIES
O   15.9994   O_pbe_v1.2.uspp.F.UPF
H    1.0080   H.pbe-rrkjus_psl.0.1.UPF
C   12.0110   C_pbe_v1.2.uspp.F.UPF
ATOMIC_POSITIONS angstrom
C   6.913638290          9.377536831          13.846566493
O   6.685638290          9.204536831          12.460566493
H   7.792638290          10.006536831          14.008566493
H   7.062638290          8.400536831          14.313566493
H   6.039638290          9.860536831          14.290566493
C   6.981101710          9.570403169          8.757453507
H   6.857101710          9.642403169          7.673453507
H   7.150101710          8.529403169          9.044453507
H   6.081101710          9.943403169          9.249453507
O   8.094101710          10.351403169          9.163453507
H   7.549638290          9.252536831          12.010566493
H   8.831101710          10.118403169          8.576453507
