&CONTROL
calculation = 'scf' 
verbosity = 'high',
restart_mode = 'from_scratch',
wf_collect = .true.
nstep = 1000,
tstress = .true.,
tprnfor = .true., 
outdir = './out',
pseudo_dir = '/home/sampa/Lab6/pseudos',
prefix = 'dimer',
/  
&SYSTEM
        ibrav = 0, 
         nat = 12,
         ntyp = 3,
      ecutwfc = 45,
      ecutrho = 200,
    input_dft = 'PBE',
assume_isolated='mt',
/    
&ELECTRONS 
  electron_maxstep = 500,
  mixing_beta = 0.3 
/ 
&IONS 
/
CELL_PARAMETERS angstrom 
15.0000        0.0000        0.0000
0.0000        20.000        0.0000
0.0000        0.0000        25.000
K_POINTS {automatic}
2 1 1 0 0 0
ATOMIC_SPECIES
O   15.9994   O_pbe_v1.2.uspp.F.UPF
H    1.0080   H.pbe-rrkjus_psl.0.1.UPF
C   12.0110   C_pbe_v1.2.uspp.F.UPF
ATOMIC_POSITIONS angstrom
C    6.958896885          9.450437393          13.437193097
O    6.730896885          9.277437393          12.051193097
H    7.837896885          10.079437393          13.599193097
H    7.107896885          8.473437393          13.904193097
H    6.084896885          9.933437393          13.881193097
C    6.935843115          9.497502607          9.166826903
H    6.811843115          9.569502607          8.082826903
H    7.104843115          8.456502607          9.453826903
H    6.035843115          9.870502607          9.658826903
O    8.048843115          10.278502607          9.572826903
H    7.594896885          9.325437393          11.601193097
H    8.785843115          10.045502607          8.985826903
