&CONTROL
calculation = 'scf' 
verbosity = 'high',
restart_mode = 'from_scratch',
wf_collect = .true.
nstep = 1000,
tstress = .true.,
tprnfor = .true., 
outdir = './out',
pseudo_dir = '/home/sampa/Lab6/pseudos',
prefix = 'dimer',
/  
&SYSTEM
        ibrav = 0, 
         nat = 12,
         ntyp = 3,
      ecutwfc = 45,
      ecutrho = 200,
    input_dft = 'PBE',
assume_isolated='mt',
/    
&ELECTRONS 
  electron_maxstep = 500,
  mixing_beta = 0.3 
/ 
&IONS 
/
CELL_PARAMETERS angstrom 
10.0000        0.0000        0.0000
0.0000        12.000        0.0000
0.0000        0.0000        12.000
K_POINTS {automatic}
2 1 1 0 0 0
ATOMIC_SPECIES
O   15.9994   O_pbe_v1.2.uspp.F.UPF
H    1.0080   H.pbe-rrkjus_psl.0.1.UPF
C   12.0110   C_pbe_v1.2.uspp.F.UPF
ATOMIC_POSITIONS angstrom
C    8.895344416          8.965123016          13.174125337
O    7.509344416          8.792123016          13.402125337
H    9.057344416          9.594123016          12.295125337
H    9.362344416          7.988123016          13.025125337
H    9.339344416          9.448123016          14.048125337
C    6.721095584          9.685556984          8.182034663
H    6.597095584          9.757556984          7.098034663
H    6.890095584          8.644556984          8.469034663
H    5.821095584          10.058556984          8.674034663
O    7.834095584          10.466556984          8.588034663
H    7.059344416          8.840123016          12.538125337
H    8.571095584          10.233556984          8.001034663
