&control
  calculation='relax'
  restart_mode='from_scratch'
  prefix='scm2020e'
  pseudo_dir='../../../pp'
  etot_conv_thr = 1.0D-6
  forc_conv_thr = 1
  outdir='./out'
  nstep=20000
  max_seconds=14000
  tprnfor=.TRUE.
  tstress=.TRUE.
  disk_io='none'
/
&system
  ibrav=0
  a=5.6251056671
  nat=6
  ntyp=2,
  ecutwfc=140
  ecutrho=560
  nosym=.TRUE.
  occupations='smearing'
  smearing='gaussian'
  degauss=0.02
/
&electrons
  diagonalization='david'
  electron_maxstep = 100
  mixing_beta = 0.7
  conv_thr = 1.0D-6
/
&ions
/
K_POINTS automatic 
2 1 1 0 0 0
CELL_PARAMETERS {alat}
 1.000000000000000   0.000000000000000   0.000000000000000
 0.500000000000000   0.866025404000000   0.000000000000000
 0.500000000000000   0.288675135000000   0.816496581000000

ATOMIC_SPECIES
Nb   92.90638   Nb.pbe-spn-kjpaw_psl.1.0.0.UPF 
Fe   55.84500   Fe.pbe-spn-kjpaw_psl.1.0.0.UPF 

ATOMIC_POSITIONS {angstrom}
Nb 7.991315895064819 4.285938544320454 3.752000453569024
Nb 0.7558040203079995 0.21318620796807705 0.07109958234224756
Fe 6.075386663560812 2.2532192509065005 2.256380102090059
Fe 5.373455697287107 4.94043462126113 2.250861633254078
Fe 5.192205003534367 3.5035340674737094 4.164376908633585
Fe 3.9079704223373986 2.1409424829376897 1.7822965028514464
