&control
  calculation='relax'
  restart_mode='from_scratch'
  prefix='scm2020b'
  pseudo_dir='../../../pp'
  etot_conv_thr = 1.0D-6
  forc_conv_thr = 1
  outdir='./out'
  nstep=20000
  max_seconds=14000
  tprnfor=.TRUE.
  tstress=.TRUE.
  disk_io='none'
/
&system
  ibrav=0
  a=6.0667870522
  nat=6
  ntyp=2,
  ecutwfc=140
  ecutrho=560
  nosym=.TRUE.
  occupations='smearing'
  smearing='gaussian'
  degauss=0.02
/
&electrons
  diagonalization='david'
  electron_maxstep = 100
  mixing_beta = 0.7
  conv_thr = 1.0D-6
/
&ions
/
K_POINTS automatic 
2 1 1 0 0 0
CELL_PARAMETERS {alat}
 1.000000000000000   0.000000000000000   0.000000000000000
 0.500000000000000   0.866025404000000   0.000000000000000
 0.500000000000000   0.288675135000000   0.816496581000000

ATOMIC_SPECIES
Nb   92.90638   Nb.pbe-spn-kjpaw_psl.1.0.0.UPF 
Fe   55.84500   Fe.pbe-spn-kjpaw_psl.1.0.0.UPF 

ATOMIC_POSITIONS {angstrom}
Nb 5.842896247968871 3.2996013040451824 0.8223356550479023
Nb 5.610590556033285 1.6217097439645403 3.046236024508532
Nb 4.54233358522714 4.459831582714501 2.8255438340122883
Nb 7.370367386388632 4.0275752385528305 3.1325947295044854
Fe 2.957208698721869 2.2932865069602855 1.278070143959807
Fe 0.7315798239416246 0.652105332250684 0.14539584659774069
