&control
  calculation='relax'
  restart_mode='from_scratch'
  prefix='scm2020i'
  pseudo_dir='../../../pp'
  etot_conv_thr = 1.0D-3
  forc_conv_thr = 1
  outdir='./out'
  nstep=20000
  max_seconds=14000
  tprnfor=.TRUE.
  tstress=.TRUE.
  disk_io='none'
/
&system
  ibrav=0
  a=4.7604413033
  nat=12
  ntyp=2,
  ecutwfc=70
  ecutrho=280
  nosym=.TRUE.
  occupations='smearing'
  smearing='gaussian'
  degauss=0.02
/
&electrons
  diagonalization='david'
  electron_maxstep = 100
  mixing_beta = 0.7
  conv_thr = 1.0D-3
/
&ions
/
K_POINTS automatic 
2 1 1 0 0 0
CELL_PARAMETERS {alat}
 1.000000000000000   0.000000000000000   0.000000000000000
-0.499999885000000   0.866025470000000   0.000000000000000
 0.000000000000000   0.000000000000000   1.658502956000000

ATOMIC_SPECIES
Nb   92.90638   Nb.pbe-spn-kjpaw_psl.1.0.0.UPF 
Fe   55.84500   Fe.pbe-spn-kjpaw_psl.1.0.0.UPF 

ATOMIC_POSITIONS {angstrom}
Nb 0.053700367795745635 2.8183818960211795 3.4315008244690848
Nb 2.394305757078121 1.394739271967923 4.557266470770302
Nb 2.3857539580495493 1.408907996282472 7.421272625635885
Nb 0.08963030169249557 2.7489340421211432 0.5748237058368679
Fe 0.06942907597632554 0.010519975962810367 4.03546351042187
Fe 0.04052485479775341 0.07215663551091904 0.003980460261693797
Fe -1.157916713698265 3.4646240122326626 5.961493874610668
Fe 0.03398088578798736 1.4505497452911031 5.962668256483019
Fe 1.1792075298469957 3.5094976268558593 5.931709730625277
Fe 3.5704675898727185 0.7914770342128447 2.0576819711772263
Fe 2.390022195850606 2.7410626882319264 1.9891638249039336
Fe 1.2357939824752704 0.7422858586239003 2.0488652138537837
