&CONTROL
calculation = 'scf' 
verbosity = 'high',
restart_mode = 'from_scratch',
wf_collect = .true.
nstep = 1000,
tstress = .true.,
tprnfor = .true., 
outdir = './out',
pseudo_dir = '/home/sampa/Lab6/pseudos',
prefix = 'dimer',
/  
&SYSTEM
        ibrav = 0, 
         nat = 12,
         ntyp = 3,
      ecutwfc = 45,
      ecutrho = 200,
    input_dft = 'PBE',
assume_isolated='mt',
/    
&ELECTRONS 
  electron_maxstep = 500,
  mixing_beta = 0.3 
/ 
&IONS 
/
CELL_PARAMETERS angstrom 
15.0000        0.0000        0.0000
0.0000        20.000        0.0000
0.0000        0.0000        25.000
K_POINTS {automatic}
2 1 1 0 0 0
ATOMIC_SPECIES
O   15.9994   O_pbe_v1.2.uspp.F.UPF
H    1.0080   H.pbe-rrkjus_psl.0.1.UPF
C   12.0110   C_pbe_v1.2.uspp.F.UPF
ATOMIC_POSITIONS angstrom
C    6.980098219          9.473202760          13.138810388
O    6.752098219          9.300202760          11.752810388
H    7.859098219          10.102202760          13.300810388
H    7.129098219          8.496202760          13.605810388
H    6.106098219          9.956202760          13.582810388
C    6.914641781          9.474737240          9.465209612
H    6.790641781          9.546737240          8.381209612
H    7.083641781          8.433737240          9.752209612
H    6.014641781          9.847737240          9.957209612
O    8.027641781          10.255737240          9.871209612
H    7.616098219          9.348202760          11.302810388
H    8.764641781          10.022737240          9.284209612
