&CONTROL
calculation = 'scf' 
verbosity = 'high',
restart_mode = 'from_scratch',
wf_collect = .true.
nstep = 1000,
tstress = .true.,
tprnfor = .true., 
outdir = './out',
pseudo_dir = '/home/sampa/Lab6/pseudos',
prefix = 'dimer',
/  
&SYSTEM
        ibrav = 0, 
         nat = 12,
         ntyp = 3,
      ecutwfc = 45,
      ecutrho = 200,
    input_dft = 'PBE',
assume_isolated='mt',
/    
&ELECTRONS 
  electron_maxstep = 500,
  mixing_beta = 0.3 
/ 
&IONS 
/
CELL_PARAMETERS angstrom 
10.0000        0.0000        0.0000
0.0000        12.000        0.0000
0.0000        0.0000        12.000
K_POINTS {automatic}
2 1 1 0 0 0
ATOMIC_SPECIES
O   15.9994   O_pbe_v1.2.uspp.F.UPF
H    1.0080   H.pbe-rrkjus_psl.0.1.UPF
C   12.0110   C_pbe_v1.2.uspp.F.UPF
ATOMIC_POSITIONS angstrom
C   6.852166613          9.253471277          14.168014733
O   6.624166613          9.080471277          12.782014733
H   7.731166613          9.882471277          14.330014733
H   7.001166613          8.276471277          14.635014733
H   5.978166613          9.736471277          14.612014733
C   7.042573387          9.694468723          8.436005267
H   6.918573387          9.766468723          7.352005267
H   7.211573387          8.653468723          8.723005267
H   6.142573387          10.067468723          8.928005267
O   8.155573387          10.475468723          8.842005267
H   7.488166613          9.128471277          12.332014733
H   8.892573387          10.242468723          8.255005267
