&control
  calculation='relax'
  restart_mode='from_scratch'
  prefix='scm2020i'
  pseudo_dir='../../../pp'
  etot_conv_thr = 1.0D-3
  forc_conv_thr = 1
  outdir='./out'
  nstep=20000
  max_seconds=14000
  tprnfor=.TRUE.
  tstress=.TRUE.
  disk_io='none'
/
&system
  ibrav=0
  a=4.7604413033
  nat=12
  ntyp=2,
  ecutwfc=70
  ecutrho=280
  nosym=.TRUE.
  occupations='smearing'
  smearing='gaussian'
  degauss=0.02
/
&electrons
  diagonalization='david'
  electron_maxstep = 100
  mixing_beta = 0.7
  conv_thr = 1.0D-3
/
&ions
/
K_POINTS automatic 
2 1 1 0 0 0
CELL_PARAMETERS {alat}
 1.000000000000000   0.000000000000000   0.000000000000000
-0.499999885000000   0.866025470000000   0.000000000000000
 0.000000000000000   0.000000000000000   1.658502956000000

ATOMIC_SPECIES
Nb   92.90638   Nb.pbe-spn-kjpaw_psl.1.0.0.UPF 
Fe   55.84500   Fe.pbe-spn-kjpaw_psl.1.0.0.UPF 

ATOMIC_POSITIONS {angstrom}
Nb 0.08803404888839715 2.753028002053637 3.5087451781705976
Nb 2.450715709748041 1.4124467922868902 4.498101598616694
Nb 2.4603247700799105 1.4207332325839794 7.45390269585126
Nb 0.0755077772439781 2.830412646478057 0.5284623210550936
Fe 0.09118636779406201 0.04238263516807618 3.9502019580542025
Fe 0.0179110337339611 0.048252392796721 0.057938911192805975
Fe -1.0944209369605271 3.4377384081776423 5.933775844727203
Fe 0.05129540280507606 1.4417424770016751 5.999867079410947
Fe 1.2064233370546662 3.4909578337294196 5.979959371543878
Fe 3.5462646262670416 0.7561150506701315 1.9778240314755857
Fe 2.4577975609944662 2.787597883028306 2.0636348223424483
Fe 1.30330966793345 0.8000144903261841 2.0423371454484007
