&CONTROL
calculation = 'scf' 
verbosity = 'high',
restart_mode = 'from_scratch',
wf_collect = .true.
nstep = 1000,
tstress = .true.,
tprnfor = .true., 
outdir = './out',
pseudo_dir = '/home/sampa/Lab6/pseudos',
prefix = 'dimer',
/  
&SYSTEM
        ibrav = 0, 
         nat = 12,
         ntyp = 3,
      ecutwfc = 45,
      ecutrho = 200,
    input_dft = 'PBE',
assume_isolated='mt',
/    
&ELECTRONS 
  electron_maxstep = 500,
  mixing_beta = 0.3 
/ 
&IONS 
/
CELL_PARAMETERS angstrom 
10.0000        0.0000        0.0000
0.0000        12.000        0.0000
0.0000        0.0000        12.000
K_POINTS {automatic}
2 1 1 0 0 0
ATOMIC_SPECIES
O   15.9994   O_pbe_v1.2.uspp.F.UPF
H    1.0080   H.pbe-rrkjus_psl.0.1.UPF
C   12.0110   C_pbe_v1.2.uspp.F.UPF
ATOMIC_POSITIONS angstrom
C  6.816710399          9.549296801          12.487892561
O  8.202710399          9.722296801          12.715892561
H  6.654710399          8.920296801          11.608892561
H  6.349710399          10.526296801          12.338892561
H  6.372710399          9.066296801          13.361892561
C  7.011569601          9.532473199          9.226277439
H  6.887569601          9.604473199          8.142277439
H  7.180569601          8.491473199          9.513277439
H  6.111569601          9.905473199          9.718277439
O  8.124569601          10.313473199          9.632277439
H  8.652710399          9.674296801          11.851892561
H  8.861569601          10.080473199          9.045277439
