&CONTROL
calculation = 'scf' 
verbosity = 'high',
restart_mode = 'from_scratch',
wf_collect = .true.
nstep = 1000,
tstress = .true.,
tprnfor = .true., 
outdir = './out',
pseudo_dir = '/home/sampa/Lab6/pseudos',
prefix = 'dimer',
/  
&SYSTEM
        ibrav = 0, 
         nat = 12,
         ntyp = 3,
      ecutwfc = 45,
      ecutrho = 200,
    input_dft = 'PBE',
assume_isolated='mt',
/    
&ELECTRONS 
  electron_maxstep = 500,
  mixing_beta = 0.3 
/ 
&IONS 
/
CELL_PARAMETERS angstrom 
10.0000        0.0000        0.0000
0.0000        12.000        0.0000
0.0000        0.0000        12.000
K_POINTS {automatic}
2 1 1 0 0 0
ATOMIC_SPECIES
O   15.9994   O_pbe_v1.2.uspp.F.UPF
H    1.0080   H.pbe-rrkjus_psl.0.1.UPF
C   12.0110   C_pbe_v1.2.uspp.F.UPF
ATOMIC_POSITIONS angstrom
C   6.957546630          9.466155084          13.616960607
O   6.729546630          9.293155084          12.230960607
H   7.836546630          10.095155084          13.778960607
H   7.106546630          8.489155084          14.083960607
H   6.083546630          9.949155084          14.060960607
C   6.937193370          9.481784916          8.987059393
H   6.813193370          9.553784916          7.903059393
H   7.106193370          8.440784916          9.274059393
H   6.037193370          9.854784916          9.479059393
O   8.050193370          10.262784916          9.393059393
H   7.593546630          9.341155084          11.780960607
H   8.787193370          10.029784916          8.806059393
