&CONTROL
calculation = 'scf' 
verbosity = 'high',
restart_mode = 'from_scratch',
wf_collect = .true.
nstep = 1000,
tstress = .true.,
tprnfor = .true., 
outdir = './out',
pseudo_dir = '/home/sampa/Lab6/pseudos',
prefix = 'dimer',
/  
&SYSTEM
        ibrav = 0, 
         nat = 12,
         ntyp = 3,
      ecutwfc = 45,
      ecutrho = 200,
    input_dft = 'PBE',
assume_isolated='mt',
/    
&ELECTRONS 
  electron_maxstep = 500,
  mixing_beta = 0.3 
/ 
&IONS 
/
CELL_PARAMETERS angstrom 
10.0000        0.0000        0.0000
0.0000        12.000        0.0000
0.0000        0.0000        12.000
K_POINTS {automatic}
2 1 1 0 0 0
ATOMIC_SPECIES
O   15.9994   O_pbe_v1.2.uspp.F.UPF
H    1.0080   H.pbe-rrkjus_psl.0.1.UPF
C   12.0110   C_pbe_v1.2.uspp.F.UPF
ATOMIC_POSITIONS angstrom
C     7.388685357          8.192243195          11.882483802
O     7.946800854          6.885637041          12.016225135
H     7.219646032          6.241742162          11.955512227
O     6.022319614          12.018782083          11.020263611
H     5.312953451          12.684698254          11.009101248
C     6.647041122          12.063994406          12.302369873
H     7.491646710          11.361805158          12.266112510
H     5.964458965          11.746308373          13.113970513
H     7.043532292          13.068595742          12.540404879
H     8.233094676          8.896085805          11.904888222
H     6.702717025          8.442877534          12.714472533
H     6.852533900          8.327810246          10.924925448
