&control
  calculation='relax'
  restart_mode='from_scratch'
  prefix='scm2020i'
  pseudo_dir='../../../pp'
  etot_conv_thr = 1.0D-3
  forc_conv_thr = 1
  outdir='./out'
  nstep=20000
  max_seconds=14000
  tprnfor=.TRUE.
  tstress=.TRUE.
  disk_io='none'
/
&system
  ibrav=0
  a=4.7604413033
  nat=12
  ntyp=2,
  ecutwfc=70
  ecutrho=280
  nosym=.TRUE.
  occupations='smearing'
  smearing='gaussian'
  degauss=0.02
/
&electrons
  diagonalization='david'
  electron_maxstep = 100
  mixing_beta = 0.7
  conv_thr = 1.0D-3
/
&ions
/
K_POINTS automatic 
2 1 1 0 0 0
CELL_PARAMETERS {alat}
 1.000000000000000   0.000000000000000   0.000000000000000
-0.499999885000000   0.866025470000000   0.000000000000000
 0.000000000000000   0.000000000000000   1.658502956000000

ATOMIC_SPECIES
Nb   92.90638   Nb.pbe-spn-kjpaw_psl.1.0.0.UPF 
Fe   55.84500   Fe.pbe-spn-kjpaw_psl.1.0.0.UPF 

ATOMIC_POSITIONS {angstrom}
Nb 0.07597304463765311 2.8068931530989447 3.5168795997008973
Nb 2.4396617041542212 1.4142090870979476 4.491578542501577
Nb 2.385475438461934 1.4266181545685985 7.390574471141767
Nb 0.05940273848312319 2.806288546442094 0.533598843349535
Fe 0.0539580368430983 0.09037179429015742 3.985103242568277
Fe 0.0003448279500025131 0.00068535676529171 0.09495364565567249
Fe -1.140107061357072 3.479100122110584 5.972411516960734
Fe 0.09793797396576114 1.4658124162761228 5.980392797055284
Fe 1.2217692725623206 3.4786718066409406 6.005452753503432
Fe 3.6330962622679475 0.7342014414075341 2.006468453107734
Fe 2.405190975681801 2.7477574597781604 2.059466329799279
Fe 1.2356297714115965 0.7064036600281074 2.058100154878255
