&CONTROL
calculation = 'scf' 
verbosity = 'high',
restart_mode = 'from_scratch',
wf_collect = .true.
nstep = 1000,
tstress = .true.,
tprnfor = .true., 
outdir = './out',
pseudo_dir = '/home/sampa/Lab6/pseudos',
prefix = 'dimer',
/  
&SYSTEM
        ibrav = 0, 
         nat = 12,
         ntyp = 3,
      ecutwfc = 45,
      ecutrho = 200,
    input_dft = 'PBE',
assume_isolated='mt',
/    
&ELECTRONS 
  electron_maxstep = 500,
  mixing_beta = 0.3 
/ 
&IONS 
/
CELL_PARAMETERS angstrom 
10.0000        0.0000        0.0000
0.0000        12.000        0.0000
0.0000        0.0000        12.000
K_POINTS {automatic}
2 1 1 0 0 0
ATOMIC_SPECIES
O   15.9994   O_pbe_v1.2.uspp.F.UPF
H    1.0080   H.pbe-rrkjus_psl.0.1.UPF
C   12.0110   C_pbe_v1.2.uspp.F.UPF
ATOMIC_POSITIONS angstrom
C    8.803600754          9.030555564          12.896093537
O    7.417600754          8.857555564          13.124093537
H    8.965600754          9.659555564          12.017093537
H    9.270600754          8.053555564          12.747093537
H    9.247600754          9.513555564          13.770093537
C    6.812839246          9.620124436          8.460066463
H    6.688839246          9.692124436          7.376066463
H    6.981839246          8.579124436          8.747066463
H    5.912839246          9.993124436          8.952066463
O    7.925839246          10.401124436          8.866066463
H    6.967600754          8.905555564          12.260093537
H    8.662839246          10.168124436          8.279066463
