&CONTROL
calculation = 'scf' 
verbosity = 'high',
restart_mode = 'from_scratch',
wf_collect = .true.
nstep = 1000,
tstress = .true.,
tprnfor = .true., 
outdir = './out',
pseudo_dir = '/home/sampa/Lab6/pseudos',
prefix = 'dimer',
/  
&SYSTEM
        ibrav = 0, 
         nat = 12,
         ntyp = 3,
      ecutwfc = 45,
      ecutrho = 200,
    input_dft = 'PBE',
assume_isolated='mt',
/    
&ELECTRONS 
  electron_maxstep = 500,
  mixing_beta = 0.3 
/ 
&IONS 
/
CELL_PARAMETERS angstrom 
10.0000        0.0000        0.0000
0.0000        12.000        0.0000
0.0000        0.0000        12.000
K_POINTS {automatic}
2 1 1 0 0 0
ATOMIC_SPECIES
O   15.9994   O_pbe_v1.2.uspp.F.UPF
H    1.0080   H.pbe-rrkjus_psl.0.1.UPF
C   12.0110   C_pbe_v1.2.uspp.F.UPF
ATOMIC_POSITIONS angstrom
C  6.792022181          9.594077546          12.401955510
O  8.178022181          9.767077546          12.629955510
H  6.630022181          8.965077546          11.522955510
H  6.325022181          10.571077546          12.252955510
H  6.348022181          9.111077546          13.275955510
C  7.036257819          9.487692454          9.312214490
H  6.912257819          9.559692454          8.228214490
H  7.205257819          8.446692454          9.599214490
H  6.136257819          9.860692454          9.804214490
O  8.149257819          10.268692454          9.718214490
H  8.628022181          9.719077546          11.765955510
H  8.886257819          10.035692454          9.131214490
