&CONTROL
calculation = 'scf' 
verbosity = 'high',
restart_mode = 'from_scratch',
wf_collect = .true.
nstep = 1000,
tstress = .true.,
tprnfor = .true., 
outdir = './out',
pseudo_dir = '/home/sampa/Lab6/pseudos',
prefix = 'dimer',
/  
&SYSTEM
        ibrav = 0, 
         nat = 12,
         ntyp = 3,
      ecutwfc = 45,
      ecutrho = 200,
    input_dft = 'PBE',
assume_isolated='mt',
/    
&ELECTRONS 
  electron_maxstep = 500,
  mixing_beta = 0.3 
/ 
&IONS 
/
CELL_PARAMETERS angstrom 
10.0000        0.0000        0.0000
0.0000        12.000        0.0000
0.0000        0.0000        12.000
K_POINTS {automatic}
2 1 1 0 0 0
ATOMIC_SPECIES
O   15.9994   O_pbe_v1.2.uspp.F.UPF
H    1.0080   H.pbe-rrkjus_psl.0.1.UPF
C   12.0110   C_pbe_v1.2.uspp.F.UPF
ATOMIC_POSITIONS angstrom
C    8.620113428          9.161420658          12.340029935
O    7.234113428          8.988420658          12.568029935
H    8.782113428          9.790420658          11.461029935
H    9.087113428          8.184420658          12.191029935
H    9.064113428          9.644420658          13.214029935
C    6.996326572          9.489259342          9.016130065
H    6.872326572          9.561259342          7.932130065
H    7.165326572          8.448259342          9.303130065
H    6.096326572          9.862259342          9.508130065
O    8.109326572          10.270259342          9.422130065
H    6.784113428          9.036420658          11.704029935
H    8.846326572          10.037259342          8.835130065
