&control
  calculation='relax'
  restart_mode='from_scratch'
  prefix='scm2020d'
  pseudo_dir='../../../pp'
  etot_conv_thr = 1.0D-6
  forc_conv_thr = 1
  outdir='./out'
  nstep=20000
  max_seconds=14000
  tprnfor=.TRUE.
  tstress=.TRUE.
  disk_io='none'
/
&system
  ibrav=0
  a=4.8432991982
  nat=4
  ntyp=2,
  ecutwfc=140
  ecutrho=560
  nosym=.TRUE.
  occupations='smearing'
  smearing='gaussian'
  degauss=0.02
/
&electrons
  diagonalization='david'
  electron_maxstep = 100
  mixing_beta = 0.7
  conv_thr = 1.0D-6
/
&ions
/
K_POINTS automatic 
2 1 1 0 0 0
CELL_PARAMETERS {alat}
 1.000000000000000   0.000000000000000   0.000000000000000
 0.000000000000000   1.000000000000000   0.000000000000000
 0.000000000000000   0.000000000000000   1.000000000000000

ATOMIC_SPECIES
Nb   92.90638   Nb.pbe-spn-kjpaw_psl.1.0.0.UPF 
Fe   55.84500   Fe.pbe-spn-kjpaw_psl.1.0.0.UPF 

ATOMIC_POSITIONS {angstrom}
Nb 0.6410068997744022 2.340534840587171 2.3748299173251546
Nb 2.699608785745178 2.097003002238749 0.5660604540253211
Nb 2.4471907026521746 0.34038502137664706 2.2628986227754555
Fe 0.06543224395816782 0.4453821453861986 0.6368692829929863
