&bands
prefix = 'Si_exc2'
outdir='../Bands'
filband = 'bands.dat'
/
