&CONTROL
calculation = 'scf' 
verbosity = 'high',
restart_mode = 'from_scratch',
wf_collect = .true.
nstep = 1000,
tstress = .true.,
tprnfor = .true., 
outdir = './out',
pseudo_dir = '/home/sampa/Lab6/pseudos',
prefix = 'dimer',
/  
&SYSTEM
        ibrav = 0, 
         nat = 12,
         ntyp = 3,
      ecutwfc = 45,
      ecutrho = 200,
    input_dft = 'PBE',
assume_isolated='mt',
/    
&ELECTRONS 
  electron_maxstep = 500,
  mixing_beta = 0.3 
/ 
&IONS 
/
CELL_PARAMETERS angstrom 
10.0000        0.0000        0.0000
0.0000        12.000        0.0000
0.0000        0.0000        12.000
K_POINTS {automatic}
2 1 1 0 0 0
ATOMIC_SPECIES
O   15.9994   O_pbe_v1.2.uspp.F.UPF
H    1.0080   H.pbe-rrkjus_psl.0.1.UPF
C   12.0110   C_pbe_v1.2.uspp.F.UPF
ATOMIC_POSITIONS angstrom
C  6.890775053          9.414954564          12.745703713
O  8.276775053          9.587954564          12.973703713
H  6.728775053          8.785954564          11.866703713
H  6.423775053          10.391954564          12.596703713
H  6.446775053          8.931954564          13.619703713
C  6.937504947          9.666815436          8.968466287
H  6.813504947          9.738815436          7.884466287
H  7.106504947          8.625815436          9.255466287
H  6.037504947          10.039815436          9.460466287
O  8.050504947          10.447815436          9.374466287
H  8.726775053          9.539954564          12.109703713
H  8.787504947          10.214815436          8.787466287
