&CONTROL
calculation = 'scf' 
verbosity = 'high',
restart_mode = 'from_scratch',
wf_collect = .true.
nstep = 1000,
tstress = .true.,
tprnfor = .true., 
outdir = './out',
pseudo_dir = '/home/sampa/Lab6/pseudos',
prefix = 'dimer',
/  
&SYSTEM
        ibrav = 0, 
         nat = 12,
         ntyp = 3,
      ecutwfc = 45,
      ecutrho = 200,
    input_dft = 'PBE',
assume_isolated='mt',
/    
&ELECTRONS 
  electron_maxstep = 500,
  mixing_beta = 0.3 
/ 
&IONS 
/
CELL_PARAMETERS angstrom 
10.0000        0.0000        0.0000
0.0000        12.000        0.0000
0.0000        0.0000        12.000
K_POINTS {automatic}
2 1 1 0 0 0
ATOMIC_SPECIES
O   15.9994   O_pbe_v1.2.uspp.F.UPF
H    1.0080   H.pbe-rrkjus_psl.0.1.UPF
C   12.0110   C_pbe_v1.2.uspp.F.UPF
ATOMIC_POSITIONS angstrom
C   6.992673302          9.537049686          13.433275898
O   6.764673302          9.364049686          12.047275898
H   7.871673302          10.166049686          13.595275898
H   7.141673302          8.560049686          13.900275898
H   6.118673302          10.020049686          13.877275898
C   6.902066698          9.410890314          9.170744102
H   6.778066698          9.482890314          8.086744102
H   7.071066698          8.369890314          9.457744102
H   6.002066698          9.783890314          9.662744102
O   8.015066698          10.191890314          9.576744102
H   7.628673302          9.412049686          11.597275898
H   8.752066698          9.958890314          8.989744102
