&control
  calculation='relax'
  restart_mode='from_scratch'
  prefix='scm2020i'
  pseudo_dir='../../../pp'
  etot_conv_thr = 1.0D-3
  forc_conv_thr = 1
  outdir='./out'
  nstep=20000
  max_seconds=14000
  tprnfor=.TRUE.
  tstress=.TRUE.
  disk_io='none'
/
&system
  ibrav=0
  a=4.7604413033
  nat=12
  ntyp=2,
  ecutwfc=70
  ecutrho=280
  nosym=.TRUE.
  occupations='smearing'
  smearing='gaussian'
  degauss=0.02
/
&electrons
  diagonalization='david'
  electron_maxstep = 100
  mixing_beta = 0.7
  conv_thr = 1.0D-3
/
&ions
/
K_POINTS automatic 
2 1 1 0 0 0
CELL_PARAMETERS {alat}
 1.000000000000000   0.000000000000000   0.000000000000000
-0.499999885000000   0.866025470000000   0.000000000000000
 0.000000000000000   0.000000000000000   1.658502956000000

ATOMIC_SPECIES
Nb   92.90638   Nb.pbe-spn-kjpaw_psl.1.0.0.UPF 
Fe   55.84500   Fe.pbe-spn-kjpaw_psl.1.0.0.UPF 

ATOMIC_POSITIONS {angstrom}
Nb 0.009434413527414585 2.7672380920600688 3.480858886042798
Nb 2.419731297413774 1.434408169693727 4.492447246841727
Nb 2.4491420031697526 1.3748619878752995 7.380359661853662
Nb 0.0489620973913384 2.785707760948954 0.6005268591192273
Fe 0.05558204553845465 0.09594992084257911 3.978936062775744
Fe 0.015401693411639654 0.08053871276323565 0.010378257414805955
Fe -1.1516605766914596 3.4429226780145417 5.96148993297231
Fe 0.0644658738298927 1.4195156359168963 5.929446908206214
Fe 1.2328123568723446 3.4254794180807946 5.93114946204589
Fe 3.5649161144887067 0.73943518913439 2.0255134306752494
Fe 2.428529754277366 2.8179030609728906 2.019905670149023
Fe 1.273665106376251 0.7434732606954323 2.038179371198315
