&control
  calculation='relax'
  restart_mode='from_scratch'
  prefix='scm2020i'
  pseudo_dir='../../../pp'
  etot_conv_thr = 1.0D-3
  forc_conv_thr = 1
  outdir='./out'
  nstep=20000
  max_seconds=14000
  tprnfor=.TRUE.
  tstress=.TRUE.
  disk_io='none'
/
&system
  ibrav=0
  a=4.7604413033
  nat=12
  ntyp=2,
  ecutwfc=70
  ecutrho=280
  nosym=.TRUE.
  occupations='smearing'
  smearing='gaussian'
  degauss=0.02
/
&electrons
  diagonalization='david'
  electron_maxstep = 100
  mixing_beta = 0.7
  conv_thr = 1.0D-3
/
&ions
/
K_POINTS automatic 
2 1 1 0 0 0
CELL_PARAMETERS {alat}
 1.000000000000000   0.000000000000000   0.000000000000000
-0.499999885000000   0.866025470000000   0.000000000000000
 0.000000000000000   0.000000000000000   1.658502956000000

ATOMIC_SPECIES
Nb   92.90638   Nb.pbe-spn-kjpaw_psl.1.0.0.UPF 
Fe   55.84500   Fe.pbe-spn-kjpaw_psl.1.0.0.UPF 

ATOMIC_POSITIONS {angstrom}
Nb 0.08815044778748905 2.7651264459487135 3.5021116943196455
Nb 2.404345728877931 1.4463343716065937 4.567081704523974
Nb 2.448570047461168 1.3798449548864489 7.40294688016357
Nb 0.06255443807764811 2.8343789957032826 0.5742943927882787
Fe 0.07212818000556645 0.09379144115506766 4.010996262845035
Fe 0.0764511442167294 0.030580625051561863 0.09691650623676822
Fe -1.0758290847150973 3.504369828594252 6.0001215576255476
Fe 0.020178123432877896 1.498830901534758 5.930450101826751
Fe 1.2145743968447011 3.448538204078144 5.931555912490723
Fe 3.607992296149031 0.7981469889488451 1.9926568804654436
Fe 2.473056836023381 2.790049207216461 1.9988241196714664
Fe 1.2819766917693236 0.7144222983706119 2.0422390259870937
