&CONTROL
calculation = 'scf' 
verbosity = 'high',
restart_mode = 'from_scratch',
wf_collect = .true.
nstep = 1000,
tstress = .true.,
tprnfor = .true., 
outdir = './out',
pseudo_dir = '/home/sampa/Lab6/pseudos',
prefix = 'dimer',
/  
&SYSTEM
        ibrav = 0, 
         nat = 12,
         ntyp = 3,
      ecutwfc = 45,
      ecutrho = 200,
    input_dft = 'PBE',
assume_isolated='mt',
/    
&ELECTRONS 
  electron_maxstep = 500,
  mixing_beta = 0.3 
/ 
&IONS 
/
CELL_PARAMETERS angstrom 
10.0000        0.0000        0.0000
0.0000        12.000        0.0000
0.0000        0.0000        12.000
K_POINTS {automatic}
2 1 1 0 0 0
ATOMIC_SPECIES
O   15.9994   O_pbe_v1.2.uspp.F.UPF
H    1.0080   H.pbe-rrkjus_psl.0.1.UPF
C   12.0110   C_pbe_v1.2.uspp.F.UPF
ATOMIC_POSITIONS angstrom
C  6.866086835          9.459735310          12.659766663
O  8.252086835          9.632735310          12.887766663
H  6.704086835          8.830735310          11.780766663
H  6.399086835          10.436735310          12.510766663
H  6.422086835          8.976735310          13.533766663
C  6.962193165          9.622034690          9.054403337
H  6.838193165          9.694034690          7.970403337
H  7.131193165          8.581034690          9.341403337
H  6.062193165          9.995034690          9.546403337
O  8.075193165          10.403034690          9.460403337
H  8.702086835          9.584735310          12.023766663
H  8.812193165          10.170034690          8.873403337
