&CONTROL
calculation = 'scf' 
verbosity = 'high',
restart_mode = 'from_scratch',
wf_collect = .true.
nstep = 1000,
tstress = .true.,
tprnfor = .true., 
outdir = './out',
pseudo_dir = '/home/sampa/Lab6/pseudos',
prefix = 'dimer',
/  
&SYSTEM
        ibrav = 0, 
         nat = 12,
         ntyp = 3,
      ecutwfc = 45,
      ecutrho = 200,
    input_dft = 'PBE',
assume_isolated='mt',
/    
&ELECTRONS 
  electron_maxstep = 500,
  mixing_beta = 0.3 
/ 
&IONS 
/
CELL_PARAMETERS angstrom 
10.0000        0.0000        0.0000
0.0000        12.000        0.0000
0.0000        0.0000        12.000
K_POINTS {automatic}
2 1 1 0 0 0
ATOMIC_SPECIES
O   15.9994   O_pbe_v1.2.uspp.F.UPF
H    1.0080   H.pbe-rrkjus_psl.0.1.UPF
C   12.0110   C_pbe_v1.2.uspp.F.UPF
ATOMIC_POSITIONS angstrom
C    8.513079156          9.237758631          12.015659501
O    7.127079156          9.064758631          12.243659501
H    8.675079156          9.866758631          11.136659501
H    8.980079156          8.260758631          11.866659501
H    8.957079156          9.720758631          12.889659501
C    7.103360844          9.412921369          9.340500499
H    6.979360844          9.484921369          8.256500499
H    7.272360844          8.371921369          9.627500499
H    6.203360844          9.785921369          9.832500499
O    8.216360844          10.193921369          9.746500499
H    6.677079156          9.112758631          11.379659501
H    8.953360844          9.960921369          9.159500499
