&CONTROL
calculation = 'scf' 
verbosity = 'high',
restart_mode = 'from_scratch',
wf_collect = .true.
nstep = 1000,
tstress = .true.,
tprnfor = .true., 
outdir = './out',
pseudo_dir = '/home/sampa/Lab6/pseudos',
prefix = 'dimer',
/  
&SYSTEM
        ibrav = 0, 
         nat = 12,
         ntyp = 3,
      ecutwfc = 45,
      ecutrho = 200,
    input_dft = 'PBE',
assume_isolated='mt',
/    
&ELECTRONS 
  electron_maxstep = 500,
  mixing_beta = 0.3 
/ 
&IONS 
/
CELL_PARAMETERS angstrom 
10.0000        0.0000        0.0000
0.0000        12.000        0.0000
0.0000        0.0000        12.000
K_POINTS {automatic}
2 1 1 0 0 0
ATOMIC_SPECIES
O   15.9994   O_pbe_v1.2.uspp.F.UPF
H    1.0080   H.pbe-rrkjus_psl.0.1.UPF
C   12.0110   C_pbe_v1.2.uspp.F.UPF
ATOMIC_POSITIONS angstrom
C     7.502754275          7.812901756          11.826910834
O     8.060869772          6.506295602          11.960652167
H     7.333714950          5.862400723          11.899939259
O     5.908250696          12.398123522          11.075836579
H     5.198884533          13.064039693          11.064674216
C     6.532972204          12.443335845          12.357942841
H     7.377577792          11.741146597          12.321685478
H     5.850390047          12.125649812          13.169543481
H     6.929463374          13.447937181          12.595977847
H     8.347163594          8.516744366          11.849315254
H     6.816785943          8.063536095          12.658899565
H     6.966602818          7.948468807          10.869352480
