&CONTROL
calculation = 'scf' 
verbosity = 'high',
restart_mode = 'from_scratch',
wf_collect = .true.
nstep = 1000,
tstress = .true.,
tprnfor = .true., 
outdir = './out',
pseudo_dir = '/home/sampa/Lab6/pseudos',
prefix = 'dimer',
/  
&SYSTEM
        ibrav = 0, 
         nat = 12,
         ntyp = 3,
      ecutwfc = 45,
      ecutrho = 200,
    input_dft = 'PBE',
assume_isolated='mt',
/    
&ELECTRONS 
  electron_maxstep = 500,
  mixing_beta = 0.3 
/ 
&IONS 
/
CELL_PARAMETERS angstrom 
10.0000        0.0000        0.0000
0.0000        12.000        0.0000
0.0000        0.0000        12.000
K_POINTS {automatic}
2 1 1 0 0 0
ATOMIC_SPECIES
O   15.9994   O_pbe_v1.2.uspp.F.UPF
H    1.0080   H.pbe-rrkjus_psl.0.1.UPF
C   12.0110   C_pbe_v1.2.uspp.F.UPF
ATOMIC_POSITIONS angstrom
C    8.681275870          9.117798960          12.525384469
O    7.295275870          8.944798960          12.753384469
H    8.843275870          9.746798960          11.646384469
H    9.148275870          8.140798960          12.376384469
H    9.125275870          9.600798960          13.399384469
C    6.935164130          9.532881040          8.830775531
H    6.811164130          9.604881040          7.746775531
H    7.104164130          8.491881040          9.117775531
H    6.035164130          9.905881040          9.322775531
O    8.048164130          10.313881040          9.236775531
H    6.845275870          8.992798960          11.889384469
H    8.785164130          10.080881040          8.649775531
