&CONTROL
calculation = 'scf' 
verbosity = 'high',
restart_mode = 'from_scratch',
wf_collect = .true.
nstep = 1000,
tstress = .true.,
tprnfor = .true., 
outdir = './out',
pseudo_dir = '/home/sampa/Lab6/pseudos',
prefix = 'dimer',
/  
&SYSTEM
        ibrav = 0, 
         nat = 12,
         ntyp = 3,
      ecutwfc = 45,
      ecutrho = 200,
    input_dft = 'PBE',
assume_isolated='mt',
/    
&ELECTRONS 
  electron_maxstep = 500,
  mixing_beta = 0.3 
/ 
&IONS 
/
CELL_PARAMETERS angstrom 
10.0000        0.0000        0.0000
0.0000        12.000        0.0000
0.0000        0.0000        12.000
K_POINTS {automatic}
2 1 1 0 0 0
ATOMIC_SPECIES
O   15.9994   O_pbe_v1.2.uspp.F.UPF
H    1.0080   H.pbe-rrkjus_psl.0.1.UPF
C   12.0110   C_pbe_v1.2.uspp.F.UPF
ATOMIC_POSITIONS angstrom
C    8.551305682          9.210495069          12.131506085
O    7.165305682          9.037495069          12.359506085
H    8.713305682          9.839495069          11.252506085
H    9.018305682          8.233495069          11.982506085
H    8.995305682          9.693495069          13.005506085
C    7.065134318          9.440184931          9.224653915
H    6.941134318          9.512184931          8.140653915
H    7.234134318          8.399184931          9.511653915
H    6.165134318          9.813184931          9.716653915
O    8.178134318          10.221184931          9.630653915
H    6.715305682          9.085495069          11.495506085
H    8.915134318          9.988184931          9.043653915
