&CONTROL
calculation = 'scf' 
verbosity = 'high',
restart_mode = 'from_scratch',
wf_collect = .true.
nstep = 1000,
tstress = .true.,
tprnfor = .true., 
outdir = './out',
pseudo_dir = '/home/sampa/Lab6/pseudos',
prefix = 'dimer',
/  
&SYSTEM
        ibrav = 0, 
         nat = 12,
         ntyp = 3,
      ecutwfc = 45,
      ecutrho = 200,
    input_dft = 'PBE',
assume_isolated='mt',
/    
&ELECTRONS 
  electron_maxstep = 500,
  mixing_beta = 0.3 
/ 
&IONS 
/
CELL_PARAMETERS angstrom 
10.0000        0.0000        0.0000
0.0000        12.000        0.0000
0.0000        0.0000        12.000
K_POINTS {automatic}
2 1 1 0 0 0
ATOMIC_SPECIES
O   15.9994   O_pbe_v1.2.uspp.F.UPF
H    1.0080   H.pbe-rrkjus_psl.0.1.UPF
C   12.0110   C_pbe_v1.2.uspp.F.UPF
ATOMIC_POSITIONS angstrom
C  6.804366290          9.571687173          12.444924035
O  8.190366290          9.744687173          12.672924035
H  6.642366290          8.942687173          11.565924035
H  6.337366290          10.548687173          12.295924035
H  6.360366290          9.088687173          13.318924035
C  7.023913710          9.510082827          9.269245965
H  6.899913710          9.582082827          8.185245965
H  7.192913710          8.469082827          9.556245965
H  6.123913710          9.883082827          9.761245965
O  8.136913710          10.291082827          9.675245965
H  8.640366290          9.696687173          11.808924035
H  8.873913710          10.058082827          9.088245965
