&CONTROL
calculation = 'scf' 
verbosity = 'high',
restart_mode = 'from_scratch',
wf_collect = .true.
nstep = 1000,
tstress = .true.,
tprnfor = .true., 
outdir = './out',
pseudo_dir = '/home/sampa/Lab6/pseudos',
prefix = 'dimer',
/  
&SYSTEM
        ibrav = 0, 
         nat = 12,
         ntyp = 3,
      ecutwfc = 45,
      ecutrho = 200,
    input_dft = 'PBE',
assume_isolated='mt',
/    
&ELECTRONS 
  electron_maxstep = 500,
  mixing_beta = 0.3 
/ 
&IONS 
/
CELL_PARAMETERS angstrom 
10.0000        0.0000        0.0000
0.0000        12.000        0.0000
0.0000        0.0000        12.000
K_POINTS {automatic}
2 1 1 0 0 0
ATOMIC_SPECIES
O   15.9994   O_pbe_v1.2.uspp.F.UPF
H    1.0080   H.pbe-rrkjus_psl.0.1.UPF
C   12.0110   C_pbe_v1.2.uspp.F.UPF
ATOMIC_POSITIONS angstrom
C     7.267487132          8.595293474          11.941530080
O     7.825602629          7.288687320          12.075271413
H     7.098447807          6.644792441          12.014558505
O     6.143517839          11.615731804          10.961217333
H     5.434151676          12.281647975          10.950054970
C     6.768239347          11.660944127          12.243323595
H     7.612844935          10.958754879          12.207066232
H     6.085657190          11.343258094          13.054924235
H     7.164730517          12.665545463          12.481358601
H     8.111896451          9.299136084          11.963934500
H     6.581518800          8.845927813          12.773518811
H     6.731335675          8.730860525          10.983971726
