&CONTROL
calculation = 'scf' 
verbosity = 'high',
restart_mode = 'from_scratch',
wf_collect = .true.
nstep = 1000,
tstress = .true.,
tprnfor = .true., 
outdir = './out',
pseudo_dir = '/home/sampa/Lab6/pseudos',
prefix = 'dimer',
/  
&SYSTEM
        ibrav = 0, 
         nat = 12,
         ntyp = 3,
      ecutwfc = 45,
      ecutrho = 200,
    input_dft = 'PBE',
assume_isolated='mt',
/    
&ELECTRONS 
  electron_maxstep = 500,
  mixing_beta = 0.3 
/ 
&IONS 
/
CELL_PARAMETERS angstrom 
10.0000        0.0000        0.0000
0.0000        12.000        0.0000
0.0000        0.0000        12.000
K_POINTS {automatic}
2 1 1 0 0 0
ATOMIC_SPECIES
O   15.9994   O_pbe_v1.2.uspp.F.UPF
H    1.0080   H.pbe-rrkjus_psl.0.1.UPF
C   12.0110   C_pbe_v1.2.uspp.F.UPF
ATOMIC_POSITIONS angstrom
C    8.635404039          9.150515234          12.386368569
O    7.249404039          8.977515234          12.614368569
H    8.797404039          9.779515234          11.507368569
H    9.102404039          8.173515234          12.237368569
H    9.079404039          9.633515234          13.260368569
C    6.981035961          9.500164766          8.969791431
H    6.857035961          9.572164766          7.885791431
H    7.150035961          8.459164766          9.256791431
H    6.081035961          9.873164766          9.461791431
O    8.094035961          10.281164766          9.375791431
H    6.799404039          9.025515234          11.750368569
H    8.831035961          10.048164766          8.788791431
