&CONTROL
calculation = 'scf' 
verbosity = 'high',
restart_mode = 'from_scratch',
wf_collect = .true.
nstep = 1000,
tstress = .true.,
tprnfor = .true., 
outdir = './out',
pseudo_dir = '/home/sampa/Lab6/pseudos',
prefix = 'dimer',
/  
&SYSTEM
        ibrav = 0, 
         nat = 12,
         ntyp = 3,
      ecutwfc = 45,
      ecutrho = 200,
    input_dft = 'PBE',
assume_isolated='mt',
/    
&ELECTRONS 
  electron_maxstep = 500,
  mixing_beta = 0.3 
/ 
&IONS 
/
CELL_PARAMETERS angstrom 
10.0000        0.0000        0.0000
0.0000        12.000        0.0000
0.0000        0.0000        12.000
K_POINTS {automatic}
2 1 1 0 0 0
ATOMIC_SPECIES
O   15.9994   O_pbe_v1.2.uspp.F.UPF
H    1.0080   H.pbe-rrkjus_psl.0.1.UPF
C   12.0110   C_pbe_v1.2.uspp.F.UPF
ATOMIC_POSITIONS angstrom
C   6.887293285          9.324365879          13.984330025
O   6.659293285          9.151365879          12.598330025
H   7.766293285          9.953365879          14.146330025
H   7.036293285          8.347365879          14.451330025
H   6.013293285          9.807365879          14.428330025
C   7.007446715          9.623574121          8.619689975
H   6.883446715          9.695574121          7.535689975
H   7.176446715          8.582574121          8.906689975
H   6.107446715          9.996574121          9.111689975
O   8.120446715          10.404574121          9.025689975
H   7.523293285          9.199365879          12.148330025
H   8.857446715          10.171574121          8.438689975
