&control
  calculation='relax'
  restart_mode='from_scratch'
  prefix='scm2020e'
  pseudo_dir='../../../pp'
  etot_conv_thr = 1.0D-6
  forc_conv_thr = 1
  outdir='./out'
  nstep=20000
  max_seconds=14000
  tprnfor=.TRUE.
  tstress=.TRUE.
  disk_io='none'
/
&system
  ibrav=0
  a=5.6251056671
  nat=6
  ntyp=2,
  ecutwfc=140
  ecutrho=560
  nosym=.TRUE.
  occupations='smearing'
  smearing='gaussian'
  degauss=0.02
/
&electrons
  diagonalization='david'
  electron_maxstep = 100
  mixing_beta = 0.7
  conv_thr = 1.0D-6
/
&ions
/
K_POINTS automatic 
2 1 1 0 0 0
CELL_PARAMETERS {alat}
 1.000000000000000   0.000000000000000   0.000000000000000
 0.500000000000000   0.866025404000000   0.000000000000000
 0.500000000000000   0.288675135000000   0.816496581000000

ATOMIC_SPECIES
Nb   92.90638   Nb.pbe-spn-kjpaw_psl.1.0.0.UPF 
Fe   55.84500   Fe.pbe-spn-kjpaw_psl.1.0.0.UPF 

ATOMIC_POSITIONS {angstrom}
Nb 7.674976599748219 4.892161070873875 3.7357220258913384
Nb 0.4906669944360349 0.1159676083867251 0.7823523495614375
Fe 6.51950518052067 2.6093099782467037 1.6191402064646456
Fe 5.33006414332866 4.413278020670028 1.7776521998918955
Fe 5.5062802283524634 3.5732234482889904 4.05544611888183
Fe 4.358585830445851 2.7582449353127347 1.5588514418697257
