&CONTROL
calculation = 'scf' 
verbosity = 'high',
restart_mode = 'from_scratch',
wf_collect = .true.
nstep = 1000,
tstress = .true.,
tprnfor = .true., 
outdir = './out',
pseudo_dir = '/home/sampa/Lab6/pseudos',
prefix = 'dimer',
/  
&SYSTEM
        ibrav = 0, 
         nat = 12,
         ntyp = 3,
      ecutwfc = 45,
      ecutrho = 200,
    input_dft = 'PBE',
assume_isolated='mt',
/    
&ELECTRONS 
  electron_maxstep = 500,
  mixing_beta = 0.3 
/ 
&IONS 
/
CELL_PARAMETERS angstrom 
10.0000        0.0000        0.0000
0.0000        12.000        0.0000
0.0000        0.0000        12.000
K_POINTS {automatic}
2 1 1 0 0 0
ATOMIC_SPECIES
O   15.9994   O_pbe_v1.2.uspp.F.UPF
H    1.0080   H.pbe-rrkjus_psl.0.1.UPF
C   12.0110   C_pbe_v1.2.uspp.F.UPF
ATOMIC_POSITIONS angstrom
C  6.841398617          9.504516055          12.573829612
O  8.227398617          9.677516055          12.801829612
H  6.679398617          8.875516055          11.694829612
H  6.374398617          10.481516055          12.424829612
H  6.397398617          9.021516055          13.447829612
C  6.986881383          9.577253945          9.140340388
H  6.862881383          9.649253945          8.056340388
H  7.155881383          8.536253945          9.427340388
H  6.086881383          9.950253945          9.632340388
O  8.099881383          10.358253945          9.546340388
H  8.677398617          9.629516055          11.937829612
H  8.836881383          10.125253945          8.959340388
