&control
  calculation='relax'
  restart_mode='from_scratch'
  prefix='scm2020b'
  pseudo_dir='../../../pp'
  etot_conv_thr = 1.0D-6
  forc_conv_thr = 1
  outdir='./out'
  nstep=20000
  max_seconds=14000
  tprnfor=.TRUE.
  tstress=.TRUE.
  disk_io='none'
/
&system
  ibrav=0
  a=6.0667870522
  nat=6
  ntyp=2,
  ecutwfc=140
  ecutrho=560
  nosym=.TRUE.
  occupations='smearing'
  smearing='gaussian'
  degauss=0.02
/
&electrons
  diagonalization='david'
  electron_maxstep = 100
  mixing_beta = 0.7
  conv_thr = 1.0D-6
/
&ions
/
K_POINTS automatic 
2 1 1 0 0 0
CELL_PARAMETERS {alat}
 1.000000000000000   0.000000000000000   0.000000000000000
 0.500000000000000   0.866025404000000   0.000000000000000
 0.500000000000000   0.288675135000000   0.816496581000000

ATOMIC_SPECIES
Nb   92.90638   Nb.pbe-spn-kjpaw_psl.1.0.0.UPF 
Fe   55.84500   Fe.pbe-spn-kjpaw_psl.1.0.0.UPF 

ATOMIC_POSITIONS {angstrom}
Nb 5.369987522995567 3.2096900879026826 0.6237887205930098
Nb 6.027834496679935 2.2330743649067477 3.3343611479333837
Nb 4.345631572822549 4.27491404041224 2.720650090885359
Nb 6.929977910676127 4.125078800462015 3.4611240110052295
Fe 3.063114239962921 2.0111840523993516 1.4551391497855606
Fe 0.3563612883870059 0.2918879774461234 0.6033152470238864
