&control
  calculation='relax'
  restart_mode='from_scratch'
  prefix='scm2020i'
  pseudo_dir='../../../pp'
  etot_conv_thr = 1.0D-3
  forc_conv_thr = 1
  outdir='./out'
  nstep=20000
  max_seconds=14000
  tprnfor=.TRUE.
  tstress=.TRUE.
  disk_io='none'
/
&system
  ibrav=0
  a=4.7604413033
  nat=12
  ntyp=2,
  ecutwfc=70
  ecutrho=280
  nosym=.TRUE.
  occupations='smearing'
  smearing='gaussian'
  degauss=0.02
/
&electrons
  diagonalization='david'
  electron_maxstep = 100
  mixing_beta = 0.7
  conv_thr = 1.0D-3
/
&ions
/
K_POINTS automatic 
2 1 1 0 0 0
CELL_PARAMETERS {alat}
 1.000000000000000   0.000000000000000   0.000000000000000
-0.499999885000000   0.866025470000000   0.000000000000000
 0.000000000000000   0.000000000000000   1.658502956000000

ATOMIC_SPECIES
Nb   92.90638   Nb.pbe-spn-kjpaw_psl.1.0.0.UPF 
Fe   55.84500   Fe.pbe-spn-kjpaw_psl.1.0.0.UPF 

ATOMIC_POSITIONS {angstrom}
Nb 0.04024601989322411 2.76578074462854 3.4644613270880265
Nb 2.4661471414500893 1.4487511356611085 4.5111752956847475
Nb 2.4133656001592114 1.441068989728751 7.451921675622685
Nb 0.0987982147507437 2.7904333295233688 0.6153944232871031
Fe 0.03241068133082834 0.08055178959425167 4.037550748488008
Fe 0.06313006441757088 0.023777728019444402 0.055745064042417615
Fe -1.0660202848173874 3.4727477263697843 5.946099900119221
Fe 0.030902339577865204 1.4288260801661572 5.950018638183451
Fe 1.199828137240484 3.5163563233169035 5.961736510904848
Fe 3.603446530781657 0.7547668415136531 2.003051935235306
Fe 2.380724744171444 2.7936343607974514 1.9926279487708407
Fe 1.2704949106767294 0.7382823195269439 2.0382165161404444
