&control
  calculation='relax'
  restart_mode='from_scratch'
  prefix='scm2020i'
  pseudo_dir='../../../pp'
  etot_conv_thr = 1.0D-3
  forc_conv_thr = 1
  outdir='./out'
  nstep=20000
  max_seconds=14000
  tprnfor=.TRUE.
  tstress=.TRUE.
  disk_io='none'
/
&system
  ibrav=0
  a=4.7604413033
  nat=12
  ntyp=2,
  ecutwfc=70
  ecutrho=280
  nosym=.TRUE.
  occupations='smearing'
  smearing='gaussian'
  degauss=0.02
/
&electrons
  diagonalization='david'
  electron_maxstep = 100
  mixing_beta = 0.7
  conv_thr = 1.0D-3
/
&ions
/
K_POINTS automatic 
2 1 1 0 0 0
CELL_PARAMETERS {alat}
 1.000000000000000   0.000000000000000   0.000000000000000
-0.499999885000000   0.866025470000000   0.000000000000000
 0.000000000000000   0.000000000000000   1.658502956000000

ATOMIC_SPECIES
Nb   92.90638   Nb.pbe-spn-kjpaw_psl.1.0.0.UPF 
Fe   55.84500   Fe.pbe-spn-kjpaw_psl.1.0.0.UPF 

ATOMIC_POSITIONS {angstrom}
Nb 0.09065682593112245 2.7648733312276117 3.4278114670244375
Nb 2.4016845588497633 1.4361876997206993 4.4846116153658135
Nb 2.4329040771773967 1.387258906375718 7.389232345772609
Nb 0.05913815925438512 2.8298432920500627 0.6037493052274127
Fe 0.05962953935115568 0.06711433427082414 4.030726820320669
Fe 0.05287541399643636 0.009712907308021254 0.006964416639481705
Fe -1.0726128850866332 3.458169800549632 5.951184166588919
Fe 0.07026244485764971 1.4464305816008798 5.997905516787417
Fe 1.1722620123534406 3.4537308113612855 6.006444389585139
Fe 3.568605997741029 0.7285831509762187 2.0056128489955856
Fe 2.444887042162426 2.7389453448531587 2.006543908030078
Fe 1.2501202007489494 0.7096670306758408 2.0359099889411003
