&control
  calculation='relax'
  restart_mode='from_scratch'
  prefix='scm2020d'
  pseudo_dir='../../../pp'
  etot_conv_thr = 1.0D-6
  forc_conv_thr = 1
  outdir='./out'
  nstep=20000
  max_seconds=14000
  tprnfor=.TRUE.
  tstress=.TRUE.
  disk_io='none'
/
&system
  ibrav=0
  a=4.8432991982
  nat=4
  ntyp=2,
  ecutwfc=140
  ecutrho=560
  nosym=.TRUE.
  occupations='smearing'
  smearing='gaussian'
  degauss=0.02
/
&electrons
  diagonalization='david'
  electron_maxstep = 100
  mixing_beta = 0.7
  conv_thr = 1.0D-6
/
&ions
/
K_POINTS automatic 
2 1 1 0 0 0
CELL_PARAMETERS {alat}
 1.000000000000000   0.000000000000000   0.000000000000000
 0.000000000000000   1.000000000000000   0.000000000000000
 0.000000000000000   0.000000000000000   1.000000000000000

ATOMIC_SPECIES
Nb   92.90638   Nb.pbe-spn-kjpaw_psl.1.0.0.UPF 
Fe   55.84500   Fe.pbe-spn-kjpaw_psl.1.0.0.UPF 

ATOMIC_POSITIONS {angstrom}
Nb 0.18583621307201847 2.7035807173010733 2.7066985070216782
Nb 2.6537754548225423 2.064685454330378 0.7488618943891356
Nb 2.478906136172299 0.7100613125068507 2.543347867886161
Fe 0.7552619702613268 0.2270213429582042 0.6626795128537735
