&CONTROL
calculation = 'scf' 
verbosity = 'high',
restart_mode = 'from_scratch',
wf_collect = .true.
nstep = 1000,
tstress = .true.,
tprnfor = .true., 
outdir = './out',
pseudo_dir = '/home/sampa/Lab6/pseudos',
prefix = 'dimer',
/  
&SYSTEM
        ibrav = 0, 
         nat = 12,
         ntyp = 3,
      ecutwfc = 45,
      ecutrho = 200,
    input_dft = 'PBE',
assume_isolated='mt',
/    
&ELECTRONS 
  electron_maxstep = 500,
  mixing_beta = 0.3 
/ 
&IONS 
/
CELL_PARAMETERS angstrom 
10.0000        0.0000        0.0000
0.0000        12.000        0.0000
0.0000        0.0000        12.000
K_POINTS {automatic}
2 1 1 0 0 0
ATOMIC_SPECIES
O   15.9994   O_pbe_v1.2.uspp.F.UPF
H    1.0080   H.pbe-rrkjus_psl.0.1.UPF
C   12.0110   C_pbe_v1.2.uspp.F.UPF
ATOMIC_POSITIONS angstrom
C  6.989527926          9.235831583          13.089451917
O  8.375527926          9.408831583          13.317451917
H  6.827527926          8.606831583          12.210451917
H  6.522527926          10.212831583          12.940451917
H  6.545527926          8.752831583          13.963451917
C  6.838752074          9.845938417          8.624718083
H  6.714752074          9.917938417          7.540718083
H  7.007752074          8.804938417          8.911718083
H  5.938752074          10.218938417          9.116718083
O  7.951752074          10.626938417          9.030718083
H  8.825527926          9.360831583          12.453451917
H  8.688752074          10.393938417          8.443718083
