&control
  calculation='relax'
  restart_mode='from_scratch'
  prefix='scm2020i'
  pseudo_dir='../../../pp'
  etot_conv_thr = 1.0D-3
  forc_conv_thr = 1
  outdir='./out'
  nstep=20000
  max_seconds=14000
  tprnfor=.TRUE.
  tstress=.TRUE.
  disk_io='none'
/
&system
  ibrav=0
  a=4.7604413033
  nat=12
  ntyp=2,
  ecutwfc=70
  ecutrho=280
  nosym=.TRUE.
  occupations='smearing'
  smearing='gaussian'
  degauss=0.02
/
&electrons
  diagonalization='david'
  electron_maxstep = 100
  mixing_beta = 0.7
  conv_thr = 1.0D-3
/
&ions
/
K_POINTS automatic 
2 1 1 0 0 0
CELL_PARAMETERS {alat}
 1.000000000000000   0.000000000000000   0.000000000000000
-0.499999885000000   0.866025470000000   0.000000000000000
 0.000000000000000   0.000000000000000   1.658502956000000

ATOMIC_SPECIES
Nb   92.90638   Nb.pbe-spn-kjpaw_psl.1.0.0.UPF 
Fe   55.84500   Fe.pbe-spn-kjpaw_psl.1.0.0.UPF 

ATOMIC_POSITIONS {angstrom}
Nb 0.021767212486645253 2.7563574079882525 3.433445514436324
Nb 2.386235026222022 1.4610104122792102 4.565489524393984
Nb 2.4642493102909864 1.4335974048613862 7.46243171233248
Nb 0.08970440025290463 2.760123187132188 0.5449406246744998
Fe 0.09478853059146097 0.0234728187035681 3.960288715271722
Fe 0.02763594842335 0.020557645381438894 0.07457868263544176
Fe -1.073936652225463 3.4292744416203327 5.991907333662454
Fe 0.01831824719075588 1.4322649395754723 5.945231883747694
Fe 1.1998815998688854 3.4639421691186594 6.01068250377199
Fe 3.5888011187923206 0.7402145362079485 2.009643897824883
Fe 2.453373990323725 2.7429056372346117 1.9934304500946567
Fe 1.2248356256486155 0.7745852043649235 2.0276648688645302
