&CONTROL
calculation = 'scf' 
verbosity = 'high',
restart_mode = 'from_scratch',
wf_collect = .true.
nstep = 1000,
tstress = .true.,
tprnfor = .true., 
outdir = './out',
pseudo_dir = '/home/sampa/Lab6/pseudos',
prefix = 'dimer',
/  
&SYSTEM
        ibrav = 0, 
         nat = 12,
         ntyp = 3,
      ecutwfc = 45,
      ecutrho = 200,
    input_dft = 'PBE',
assume_isolated='mt',
/    
&ELECTRONS 
  electron_maxstep = 500,
  mixing_beta = 0.3 
/ 
&IONS 
/
CELL_PARAMETERS angstrom 
15.0000        0.0000        0.0000
0.0000        20.000        0.0000
0.0000        0.0000        25.000
K_POINTS {automatic}
2 1 1 0 0 0
ATOMIC_SPECIES
O   15.9994   O_pbe_v1.2.uspp.F.UPF
H    1.0080   H.pbe-rrkjus_psl.0.1.UPF
C   12.0110   C_pbe_v1.2.uspp.F.UPF
ATOMIC_POSITIONS angstrom
C    8.693410528          9.068518747          12.636909642
O    7.307410528          8.895518747          12.864909642
H    8.747288644          9.910453370          11.180334102
H    9.160410528          8.091518747          12.487909642
H    9.137410528          9.551518747          13.510909642
C    6.923029472          9.582161253          8.719250358
H    6.799029472          9.654161253          7.635250358
H    7.092029472          8.541161253          9.006250358
H    6.023029472          9.955161253          9.211250358
O    8.036029472          10.363161253          9.125250358
H    6.857410528          8.943518747          12.000909642
H    8.773029472          10.130161253          8.538250358
