&CONTROL
calculation = 'scf' 
verbosity = 'high',
restart_mode = 'from_scratch',
wf_collect = .true.
nstep = 1000,
tstress = .true.,
tprnfor = .true., 
outdir = './out',
pseudo_dir = '/home/sampa/Lab6/pseudos',
prefix = 'dimer',
/  
&SYSTEM
        ibrav = 0, 
         nat = 12,
         ntyp = 3,
      ecutwfc = 45,
      ecutrho = 200,
    input_dft = 'PBE',
assume_isolated='mt',
/    
&ELECTRONS 
  electron_maxstep = 500,
  mixing_beta = 0.3 
/ 
&IONS 
/
CELL_PARAMETERS angstrom 
15.0000        0.0000        0.0000
0.0000        20.000        0.0000
0.0000        0.0000        25.000
K_POINTS {automatic}
2 1 1 0 0 0
ATOMIC_SPECIES
O   15.9994   O_pbe_v1.2.uspp.F.UPF
H    1.0080   H.pbe-rrkjus_psl.0.1.UPF
C   12.0110   C_pbe_v1.2.uspp.F.UPF
ATOMIC_POSITIONS angstrom
C    8.576638893          9.298488140          12.013128059
O    7.190638893          9.125488140          12.241128059
H    8.738638893          9.927488140          11.134128059
H    9.043638893          8.321488140          11.864128059
H    9.020638893          9.781488140          12.887128059
C    7.039801107          9.352191860          9.343031941
H    6.915801107          9.424191860          8.259031941
H    7.208801107          8.311191860          9.630031941
H    6.139801107          9.725191860          9.835031941
O    8.152801107          10.133191860          9.749031941
H    6.740638893          9.173488140          11.377128059
H    8.889801107          9.900191860          9.162031941
