&CONTROL
calculation = 'scf' 
verbosity = 'high',
restart_mode = 'from_scratch',
wf_collect = .true.
nstep = 1000,
tstress = .true.,
tprnfor = .true., 
outdir = './out',
pseudo_dir = '/home/sampa/Lab6/pseudos',
prefix = 'dimer',
/  
&SYSTEM
        ibrav = 0, 
         nat = 12,
         ntyp = 3,
      ecutwfc = 45,
      ecutrho = 200,
    input_dft = 'PBE',
assume_isolated='mt',
/    
&ELECTRONS 
  electron_maxstep = 500,
  mixing_beta = 0.3 
/ 
&IONS 
/
CELL_PARAMETERS angstrom 
10.0000        0.0000        0.0000
0.0000        12.000        0.0000
0.0000        0.0000        12.000
K_POINTS {automatic}
2 1 1 0 0 0
ATOMIC_SPECIES
O   15.9994   O_pbe_v1.2.uspp.F.UPF
H    1.0080   H.pbe-rrkjus_psl.0.1.UPF
C   12.0110   C_pbe_v1.2.uspp.F.UPF
ATOMIC_POSITIONS angstrom
C   6.939983293          9.430707783          13.708802961
O   6.711983293          9.257707783          12.322802961
H   7.818983293          10.059707783          13.870802961
H   7.088983293          8.453707783          14.175802961
H   6.065983293          9.913707783          14.152802961
C   6.954756707          9.517232217          8.895217039
H   6.830756707          9.589232217          7.811217039
H   7.123756707          8.476232217          9.182217039
H   6.054756707          9.890232217          9.387217039
O   8.067756707          10.298232217          9.301217039
H   7.575983293          9.305707783          11.872802961
H   8.804756707          10.065232217          8.714217039
