&CONTROL
calculation = 'scf' 
verbosity = 'high',
restart_mode = 'from_scratch',
wf_collect = .true.
nstep = 1000,
tstress = .true.,
tprnfor = .true., 
outdir = './out',
pseudo_dir = '/home/sampa/Lab6/pseudos',
prefix = 'dimer',
/  
&SYSTEM
        ibrav = 0, 
         nat = 12,
         ntyp = 3,
      ecutwfc = 45,
      ecutrho = 200,
    input_dft = 'PBE',
assume_isolated='mt',
/    
&ELECTRONS 
  electron_maxstep = 500,
  mixing_beta = 0.3 
/ 
&IONS 
/
CELL_PARAMETERS angstrom 
10.0000        0.0000        0.0000
0.0000        12.000        0.0000
0.0000        0.0000        12.000
K_POINTS {automatic}
2 1 1 0 0 0
ATOMIC_SPECIES
O   15.9994   O_pbe_v1.2.uspp.F.UPF
H    1.0080   H.pbe-rrkjus_psl.0.1.UPF
C   12.0110   C_pbe_v1.2.uspp.F.UPF
ATOMIC_POSITIONS angstrom
C  6.878430944          9.437344937          12.702735188
O  8.264430944          9.610344937          12.930735188
H  6.716430944          8.808344937          11.823735188
H  6.411430944          10.414344937          12.553735188
H  6.434430944          8.954344937          13.576735188
C  6.949849056          9.644425063          9.011434812
H  6.825849056          9.716425063          7.927434812
H  7.118849056          8.603425063          9.298434812
H  6.049849056          10.017425063          9.503434812
O  8.062849056          10.425425063          9.417434812
H  8.714430944          9.562344937          12.066735188
H  8.799849056          10.192425063          8.830434812
