&CONTROL
calculation = 'scf' 
verbosity = 'high',
restart_mode = 'from_scratch',
wf_collect = .true.
nstep = 1000,
tstress = .true.,
tprnfor = .true., 
outdir = './out',
pseudo_dir = '/home/sampa/Lab6/pseudos',
prefix = 'dimer',
/  
&SYSTEM
        ibrav = 0, 
         nat = 12,
         ntyp = 3,
      ecutwfc = 45,
      ecutrho = 200,
    input_dft = 'PBE',
assume_isolated='mt',
/    
&ELECTRONS 
  electron_maxstep = 500,
  mixing_beta = 0.3 
/ 
&IONS 
/
CELL_PARAMETERS angstrom 
10.0000        0.0000        0.0000
0.0000        12.000        0.0000
0.0000        0.0000        12.000
K_POINTS {automatic}
2 1 1 0 0 0
ATOMIC_SPECIES
O   15.9994   O_pbe_v1.2.uspp.F.UPF
H    1.0080   H.pbe-rrkjus_psl.0.1.UPF
C   12.0110   C_pbe_v1.2.uspp.F.UPF
ATOMIC_POSITIONS angstrom
C  7.063592580          9.101489346          13.347263070
O  8.449592580          9.274489346          13.575263070
H  6.901592580          8.472489346          12.468263070
H  6.596592580          10.078489346          13.198263070
H  6.619592580          8.618489346          14.221263070
C  6.764687420          9.980280654          8.366906930
H  6.640687420          10.052280654          7.282906930
H  6.933687420          8.939280654          8.653906930
H  5.864687420          10.353280654          8.858906930
O  7.877687420          10.761280654          8.772906930
H  8.899592580          9.226489346          12.711263070
H  8.614687420          10.528280654          8.185906930
