&control
  calculation='relax'
  restart_mode='from_scratch'
  prefix='scm2020c'
  pseudo_dir='../../../pp'
  etot_conv_thr = 1.0D-6
  forc_conv_thr = 1
  outdir='./out'
  nstep=20000
  max_seconds=14000
  tprnfor=.TRUE.
  tstress=.TRUE.
  disk_io='none'
/
&system
  ibrav=0
  a=5.3108761787
  nat=4
  ntyp=2,
  ecutwfc=140
  ecutrho=560
  nosym=.TRUE.
  occupations='smearing'
  smearing='gaussian'
  degauss=0.02
/
&electrons
  diagonalization='david'
  electron_maxstep = 100
  mixing_beta = 0.7
  conv_thr = 1.0D-6
/
&ions
/
K_POINTS automatic 
2 1 1 0 0 0
CELL_PARAMETERS {alat}
 1.000000000000000   0.000000000000000   0.000000000000000
 0.500000000000000   0.866025404000000   0.000000000000000
 0.500000000000000   0.288675135000000   0.816496581000000

ATOMIC_SPECIES
Nb   92.90638   Nb.pbe-spn-kjpaw_psl.1.0.0.UPF 
Fe   55.84500   Fe.pbe-spn-kjpaw_psl.1.0.0.UPF 

ATOMIC_POSITIONS {angstrom}
Nb 5.290227441622445 3.2153919333275396 2.013429216652614
Nb 7.4726136140921735 4.317716144303495 3.064167109931672
Nb 2.473505514181923 1.366658598861128 1.4432805520837868
Fe 0.06459574866032203 0.3057614347684603 0.7482072929492292
