&control
  calculation='relax'
  restart_mode='from_scratch'
  prefix='scm2020d'
  pseudo_dir='../../../pp'
  etot_conv_thr = 1.0D-6
  forc_conv_thr = 1
  outdir='./out'
  nstep=20000
  max_seconds=14000
  tprnfor=.TRUE.
  tstress=.TRUE.
  disk_io='none'
/
&system
  ibrav=0
  a=4.8432991982
  nat=4
  ntyp=2,
  ecutwfc=140
  ecutrho=560
  nosym=.TRUE.
  occupations='smearing'
  smearing='gaussian'
  degauss=0.02
/
&electrons
  diagonalization='david'
  electron_maxstep = 100
  mixing_beta = 0.7
  conv_thr = 1.0D-6
/
&ions
/
K_POINTS automatic 
2 1 1 0 0 0
CELL_PARAMETERS {alat}
 1.000000000000000   0.000000000000000   0.000000000000000
 0.000000000000000   1.000000000000000   0.000000000000000
 0.000000000000000   0.000000000000000   1.000000000000000

ATOMIC_SPECIES
Nb   92.90638   Nb.pbe-spn-kjpaw_psl.1.0.0.UPF 
Fe   55.84500   Fe.pbe-spn-kjpaw_psl.1.0.0.UPF 

ATOMIC_POSITIONS {angstrom}
Nb 0.542297840495957 2.283101725241158 2.7702738025198173
Nb 2.1668109038171193 2.6538162710894952 0.1919528980304735
Nb 2.051976359478743 0.6345978356290715 2.166425250442643
Fe 0.471850823129264 0.5143346614763104 0.4357553864414488
