&control
  calculation='relax'
  restart_mode='from_scratch'
  prefix='scm2020i'
  pseudo_dir='../../../pp'
  etot_conv_thr = 1.0D-3
  forc_conv_thr = 1
  outdir='./out'
  nstep=20000
  max_seconds=14000
  tprnfor=.TRUE.
  tstress=.TRUE.
  disk_io='none'
/
&system
  ibrav=0
  a=4.7604413033
  nat=12
  ntyp=2,
  ecutwfc=70
  ecutrho=280
  nosym=.TRUE.
  occupations='smearing'
  smearing='gaussian'
  degauss=0.02
/
&electrons
  diagonalization='david'
  electron_maxstep = 100
  mixing_beta = 0.7
  conv_thr = 1.0D-3
/
&ions
/
K_POINTS automatic 
2 1 1 0 0 0
CELL_PARAMETERS {alat}
 1.000000000000000   0.000000000000000   0.000000000000000
-0.499999885000000   0.866025470000000   0.000000000000000
 0.000000000000000   0.000000000000000   1.658502956000000

ATOMIC_SPECIES
Nb   92.90638   Nb.pbe-spn-kjpaw_psl.1.0.0.UPF 
Fe   55.84500   Fe.pbe-spn-kjpaw_psl.1.0.0.UPF 

ATOMIC_POSITIONS {angstrom}
Nb 0.03521184162435536 2.82310529285542 3.441815212310515
Nb 2.4151195632469924 1.4295818884147025 4.481762244977572
Nb 2.4123535889905394 1.3956686941649519 7.403028861901303
Nb 0.04097498599780581 2.831087284439892 0.5262971517414126
Fe 0.07065395859724878 0.0762461632522246 3.9753563963810308
Fe 0.0885649507400429 0.02514019464183963 0.004368360775121191
Fe -1.0713369829915251 3.4806034964652106 5.933306997075737
Fe 0.07328490568145814 1.4150029583006842 5.930830040572654
Fe 1.2073587357232767 3.4226264778709097 5.952902185382084
Fe 3.6388380235679527 0.7074536120628947 2.0308616613677613
Fe 2.38470691112679 2.8022427636949154 2.0725654521837824
Fe 1.3084351121575286 0.7514094219170827 2.0396518966979054
