&CONTROL
calculation = 'scf' 
verbosity = 'high',
restart_mode = 'from_scratch',
wf_collect = .true.
nstep = 1000,
tstress = .true.,
tprnfor = .true., 
outdir = './out',
pseudo_dir = '/home/sampa/Lab6/pseudos',
prefix = 'dimer',
/  
&SYSTEM
        ibrav = 0, 
         nat = 12,
         ntyp = 3,
      ecutwfc = 45,
      ecutrho = 200,
    input_dft = 'PBE',
assume_isolated='mt',
/    
&ELECTRONS 
  electron_maxstep = 500,
  mixing_beta = 0.3 
/ 
&IONS 
/
CELL_PARAMETERS angstrom 
10.0000        0.0000        0.0000
0.0000        12.000        0.0000
0.0000        0.0000        12.000
K_POINTS {automatic}
2 1 1 0 0 0
ATOMIC_SPECIES
O   15.9994   O_pbe_v1.2.uspp.F.UPF
H    1.0080   H.pbe-rrkjus_psl.0.1.UPF
C   12.0110   C_pbe_v1.2.uspp.F.UPF
ATOMIC_POSITIONS angstrom
C  6.853742726          9.482125682          12.616798137
O  8.239742726          9.655125682          12.844798137
H  6.691742726          8.853125682          11.737798137
H  6.386742726          10.459125682          12.467798137
H  6.409742726          8.999125682          13.490798137
C  6.974537274          9.599644318          9.097371863
H  6.850537274          9.671644318          8.013371863
H  7.143537274          8.558644318          9.384371863
H  6.074537274          9.972644318          9.589371863
O  8.087537274          10.380644318          9.503371863
H  8.689742726          9.607125682          11.980798137
H  8.824537274          10.147644318          8.916371863
