&CONTROL
calculation = 'scf' 
verbosity = 'high',
restart_mode = 'from_scratch',
wf_collect = .true.
nstep = 1000,
tstress = .true.,
tprnfor = .true., 
outdir = './out',
pseudo_dir = '/home/sampa/Lab6/pseudos',
prefix = 'dimer',
/  
&SYSTEM
        ibrav = 0, 
         nat = 12,
         ntyp = 3,
      ecutwfc = 45,
      ecutrho = 200,
    input_dft = 'PBE',
assume_isolated='mt',
/    
&ELECTRONS 
  electron_maxstep = 500,
  mixing_beta = 0.3 
/ 
&IONS 
/
CELL_PARAMETERS angstrom 
15.0000        0.0000        0.0000
0.0000        20.000        0.0000
0.0000        0.0000        25.000
K_POINTS {automatic}
2 1 1 0 0 0
ATOMIC_SPECIES
O   15.9994   O_pbe_v1.2.uspp.F.UPF
H    1.0080   H.pbe-rrkjus_psl.0.1.UPF
C   12.0110   C_pbe_v1.2.uspp.F.UPF
ATOMIC_POSITIONS angstrom
C  6.845350377          9.644756665          12.279450649
O  8.231350377          9.817756665          12.507450649
H  6.683350377          9.015756665          11.400450649
H  6.378350377          10.621756665          12.130450649
H  6.401350377          9.161756665          13.153450649
C  6.982929623          9.437013335          9.434719351
H  6.858929623          9.509013335          8.350719351
H  7.151929623          8.396013335          9.721719351
H  6.082929623          9.810013335          9.926719351
O  8.095929623          10.218013335          9.840719351
H  8.681350377          9.769756665          11.643450649
H  8.832929623          9.985013335          9.253719351
