&CONTROL
calculation = 'scf' 
verbosity = 'high',
restart_mode = 'from_scratch',
wf_collect = .true.
nstep = 1000,
tstress = .true.,
tprnfor = .true., 
outdir = './out',
pseudo_dir = '/home/sampa/Lab6/pseudos',
prefix = 'dimer',
/  
&SYSTEM
        ibrav = 0, 
         nat = 12,
         ntyp = 3,
      ecutwfc = 45,
      ecutrho = 200,
    input_dft = 'PBE',
assume_isolated='mt',
/    
&ELECTRONS 
  electron_maxstep = 500,
  mixing_beta = 0.3 
/ 
&IONS 
/
CELL_PARAMETERS angstrom 
10.0000        0.0000        0.0000
0.0000        12.000        0.0000
0.0000        0.0000        12.000
K_POINTS {automatic}
2 1 1 0 0 0
ATOMIC_SPECIES
O   15.9994   O_pbe_v1.2.uspp.F.UPF
H    1.0080   H.pbe-rrkjus_psl.0.1.UPF
C   12.0110   C_pbe_v1.2.uspp.F.UPF
ATOMIC_POSITIONS angstrom
C    8.834181975          9.008744715          12.988770803
O    7.448181975          8.835744715          13.216770803
H    8.996181975          9.637744715          12.109770803
H    9.301181975          8.031744715          12.839770803
H    9.278181975          9.491744715          13.862770803
C    6.782258025          9.641935285          8.367389197
H    6.658258025          9.713935285          7.283389197
H    6.951258025          8.600935285          8.654389197
H    5.882258025          10.014935285          8.859389197
O    7.895258025          10.422935285          8.773389197
H    6.998181975          8.883744715          12.352770803
H    8.632258025          10.189935285          8.186389197
