&CONTROL
calculation = 'scf' 
verbosity = 'high',
restart_mode = 'from_scratch',
wf_collect = .true.
nstep = 1000,
tstress = .true.,
tprnfor = .true., 
outdir = './out',
pseudo_dir = '/home/sampa/Lab6/pseudos',
prefix = 'dimer',
/  
&SYSTEM
        ibrav = 0, 
         nat = 12,
         ntyp = 3,
      ecutwfc = 45,
      ecutrho = 200,
    input_dft = 'PBE',
assume_isolated='mt',
/    
&ELECTRONS 
  electron_maxstep = 500,
  mixing_beta = 0.3 
/ 
&IONS 
/
CELL_PARAMETERS angstrom 
10.0000        0.0000        0.0000
0.0000        12.000        0.0000
0.0000        0.0000        12.000
K_POINTS {automatic}
2 1 1 0 0 0
ATOMIC_SPECIES
O   15.9994   O_pbe_v1.2.uspp.F.UPF
H    1.0080   H.pbe-rrkjus_psl.0.1.UPF
C   12.0110   C_pbe_v1.2.uspp.F.UPF
ATOMIC_POSITIONS angstrom
C   6.931201626          9.412984132          13.754724139
O   6.703201626          9.239984132          12.368724139
H   7.810201626          10.041984132          13.916724139
H   7.080201626          8.435984132          14.221724139
H   6.057201626          9.895984132          14.198724139
C   6.963538374          9.534955868          8.849295861
H   6.839538374          9.606955868          7.765295861
H   7.132538374          8.493955868          9.136295861
H   6.063538374          9.907955868          9.341295861
O   8.076538374          10.315955868          9.255295861
H   7.567201626          9.287984132          11.918724139
H   8.813538374          10.082955868          8.668295861
