&CONTROL
   calculation = 'relax',
     verbosity = 'high',
  restart_mode = 'from_scratch',
    wf_collect = .true.
	 nstep = 1000,
       tstress = .true., 
       tprnfor = .true.,
        outdir = './out',
    pseudo_dir = '/home/sampa/Lab6/pseudo',
        prefix = 'dimer',
/
 &SYSTEM
         ibrav = 0,
           nat = 6,
          ntyp = 3,
       ecutwfc = 45,
       ecutrho = 200,
     input_dft = 'PBE',
 assume_isolated='mt',
 /
 &ELECTRONS
   electron_maxstep = 500,
   mixing_beta = 0.3
 /
 &IONS
 /
CELL_PARAMETERS angstrom
 15.0000        0.0000        0.0000
  0.0000        20.000        0.0000
  0.0000        0.0000        25.000
K_POINTS {automatic}
2 1 1 0 0 0
ATOMIC_SPECIES
O   15.9994   O_pbe_v1.2.uspp.F.UPF
H    1.0080   H.pbe-rrkjus_psl.0.1.UPF
C   12.0110   C_pbe_v1.2.uspp.F.UPF
ATOMIC_POSITIONS angstrom
H        1.237298359   0.036763870   0.838489795
C        0.708556723   0.008529863  -0.121903935
H        1.000880381   0.898136871  -0.705497638
H        1.028835048  -0.895017092  -0.668211711
O       -0.689288807  -0.007080948   0.175162993
H       -1.170681704  -0.032032564  -0.666239504

