&CONTROL
calculation = 'scf' 
verbosity = 'high',
restart_mode = 'from_scratch',
wf_collect = .true.
nstep = 1000,
tstress = .true.,
tprnfor = .true., 
outdir = './out',
pseudo_dir = '/home/sampa/Lab6/pseudos',
prefix = 'dimer',
/  
&SYSTEM
        ibrav = 0, 
         nat = 12,
         ntyp = 3,
      ecutwfc = 45,
      ecutrho = 200,
    input_dft = 'PBE',
assume_isolated='mt',
/    
&ELECTRONS 
  electron_maxstep = 500,
  mixing_beta = 0.3 
/ 
&IONS 
/
CELL_PARAMETERS angstrom 
10.0000        0.0000        0.0000
0.0000        12.000        0.0000
0.0000        0.0000        12.000
K_POINTS {automatic}
2 1 1 0 0 0
ATOMIC_SPECIES
O   15.9994   O_pbe_v1.2.uspp.F.UPF
H    1.0080   H.pbe-rrkjus_psl.0.1.UPF
C   12.0110   C_pbe_v1.2.uspp.F.UPF
ATOMIC_POSITIONS angstrom
C    8.665985260          9.128704385          12.479045836
O    7.279985260          8.955704385          12.707045836
H    8.827985260          9.757704385          11.600045836
H    9.132985260          8.151704385          12.330045836
H    9.109985260          9.611704385          13.353045836
C    6.950454740          9.521975615          8.877114164
H    6.826454740          9.593975615          7.793114164
H    7.119454740          8.480975615          9.164114164
H    6.050454740          9.894975615          9.369114164
O    8.063454740          10.302975615          9.283114164
H    6.829985260          9.003704385          11.843045836
H    8.800454740          10.069975615          8.696114164
