&control
  calculation='relax'
  restart_mode='from_scratch'
  prefix='scm2020i'
  pseudo_dir='../../../pp'
  etot_conv_thr = 1.0D-3
  forc_conv_thr = 1
  outdir='./out'
  nstep=20000
  max_seconds=14000
  tprnfor=.TRUE.
  tstress=.TRUE.
  disk_io='none'
/
&system
  ibrav=0
  a=4.7604413033
  nat=12
  ntyp=2,
  ecutwfc=70
  ecutrho=280
  nosym=.TRUE.
  occupations='smearing'
  smearing='gaussian'
  degauss=0.02
/
&electrons
  diagonalization='david'
  electron_maxstep = 100
  mixing_beta = 0.7
  conv_thr = 1.0D-3
/
&ions
/
K_POINTS automatic 
2 1 1 0 0 0
CELL_PARAMETERS {alat}
 1.000000000000000   0.000000000000000   0.000000000000000
-0.499999885000000   0.866025470000000   0.000000000000000
 0.000000000000000   0.000000000000000   1.658502956000000

ATOMIC_SPECIES
Nb   92.90638   Nb.pbe-spn-kjpaw_psl.1.0.0.UPF 
Fe   55.84500   Fe.pbe-spn-kjpaw_psl.1.0.0.UPF 

ATOMIC_POSITIONS {angstrom}
Nb 0.0393439206422098 2.757493878014125 3.4505123982916444
Nb 2.398639564553353 1.4228388350739907 4.532737075348204
Nb 2.4014836500989483 1.4060262643210613 7.402700904962789
Nb 0.07859424009728816 2.7684216695839456 0.5589942881828941
Fe 0.040903368559582653 0.03673062962283459 3.963734736106744
Fe 0.09972697140073435 0.07064349695814512 0.04713417649707518
Fe -1.1037541243932578 3.5122134570369576 5.923297942247679
Fe 0.020095312198451846 1.4202013592527476 5.95012406838575
Fe 1.1745365345914236 3.490701444391216 5.953849398536988
Fe 3.614703978753735 0.7752184323939374 1.980279640136569
Fe 2.4123373214264867 2.7642788378343464 1.9853499418130234
Fe 1.2660318161436002 0.7786217048926216 2.0699911957070793
