&CONTROL
calculation = 'scf' 
verbosity = 'high',
restart_mode = 'from_scratch',
wf_collect = .true.
nstep = 1000,
tstress = .true.,
tprnfor = .true., 
outdir = './out',
pseudo_dir = '/home/sampa/Lab6/pseudos',
prefix = 'dimer',
/  
&SYSTEM
        ibrav = 0, 
         nat = 12,
         ntyp = 3,
      ecutwfc = 45,
      ecutrho = 200,
    input_dft = 'PBE',
assume_isolated='mt',
/    
&ELECTRONS 
  electron_maxstep = 500,
  mixing_beta = 0.3 
/ 
&IONS 
/
CELL_PARAMETERS angstrom 
10.0000        0.0000        0.0000
0.0000        12.000        0.0000
0.0000        0.0000        12.000
K_POINTS {automatic}
2 1 1 0 0 0
ATOMIC_SPECIES
O   15.9994   O_pbe_v1.2.uspp.F.UPF
H    1.0080   H.pbe-rrkjus_psl.0.1.UPF
C   12.0110   C_pbe_v1.2.uspp.F.UPF
ATOMIC_POSITIONS angstrom
C   7.001454970          9.554773337          13.387354721
O   6.773454970          9.381773337          12.001354721
H   7.880454970          10.183773337          13.549354721
H   7.150454970          8.577773337          13.854354721
H   6.127454970          10.037773337          13.831354721
C   6.893285030          9.393166663          9.216665279
H   6.769285030          9.465166663          8.132665279
H   7.062285030          8.352166663          9.503665279
H   5.993285030          9.766166663          9.708665279
O   8.006285030          10.174166663          9.622665279
H   7.637454970          9.429773337          11.551354721
H   8.743285030          9.941166663          9.035665279
