&control
  calculation='relax'
  restart_mode='from_scratch'
  prefix='scm2020i'
  pseudo_dir='../../../pp'
  etot_conv_thr = 1.0D-3
  forc_conv_thr = 1
  outdir='./out'
  nstep=20000
  max_seconds=14000
  tprnfor=.TRUE.
  tstress=.TRUE.
  disk_io='none'
/
&system
  ibrav=0
  a=4.7604413033
  nat=12
  ntyp=2,
  ecutwfc=70
  ecutrho=280
  nosym=.TRUE.
  occupations='smearing'
  smearing='gaussian'
  degauss=0.02
/
&electrons
  diagonalization='david'
  electron_maxstep = 100
  mixing_beta = 0.7
  conv_thr = 1.0D-3
/
&ions
/
K_POINTS automatic 
2 1 1 0 0 0
CELL_PARAMETERS {alat}
 1.000000000000000   0.000000000000000   0.000000000000000
-0.499999885000000   0.866025470000000   0.000000000000000
 0.000000000000000   0.000000000000000   1.658502956000000

ATOMIC_SPECIES
Nb   92.90638   Nb.pbe-spn-kjpaw_psl.1.0.0.UPF 
Fe   55.84500   Fe.pbe-spn-kjpaw_psl.1.0.0.UPF 

ATOMIC_POSITIONS {angstrom}
Nb 0.09987599972508096 2.759086198437464 3.52204149717495
Nb 2.4582928623487637 1.4021412745033786 4.485361798882897
Nb 2.440608250357947 1.46669595665334 7.448181587626007
Nb 0.08576160698297566 2.8003900626488827 0.5604211112893759
Fe 0.06686731670352423 0.09788677822211592 3.9925309839936776
Fe 0.07202541773439686 0.02374485440899321 0.0006979635316459593
Fe -1.1142894499675096 3.51991163703447 6.00657207716389
Fe 0.06891457585460607 1.498371292622698 5.926356597572239
Fe 1.1953810435479058 3.42871192711499 6.004555779926168
Fe 3.5875500126890154 0.7347881062651203 1.9951974307033105
Fe 2.446009738101853 2.7284641113904073 2.0010889388113022
Fe 1.2261392615273672 0.7946315469512301 2.0217125930665776
