&CONTROL
calculation = 'scf' 
verbosity = 'high',
restart_mode = 'from_scratch',
wf_collect = .true.
nstep = 1000,
tstress = .true.,
tprnfor = .true., 
outdir = './out',
pseudo_dir = '/home/sampa/Lab6/pseudos',
prefix = 'dimer',
/  
&SYSTEM
        ibrav = 0, 
         nat = 12,
         ntyp = 3,
      ecutwfc = 45,
      ecutrho = 200,
    input_dft = 'PBE',
assume_isolated='mt',
/    
&ELECTRONS 
  electron_maxstep = 500,
  mixing_beta = 0.3 
/ 
&IONS 
/
CELL_PARAMETERS angstrom 
10.0000        0.0000        0.0000
0.0000        12.000        0.0000
0.0000        0.0000        12.000
K_POINTS {automatic}
2 1 1 0 0 0
ATOMIC_SPECIES
O   15.9994   O_pbe_v1.2.uspp.F.UPF
H    1.0080   H.pbe-rrkjus_psl.0.1.UPF
C   12.0110   C_pbe_v1.2.uspp.F.UPF
ATOMIC_POSITIONS angstrom
C   7.098053319          9.749733494          12.882221772
O   6.870053319          9.576733494          11.496221772
H   7.977053319          10.378733494          13.044221772
H   7.247053319          8.772733494          13.349221772
H   6.224053319          10.232733494          13.326221772
C   6.796686681          9.198206506          9.721798228
H   6.672686681          9.270206506          8.637798228
H   6.965686681          8.157206506          10.008798228
H   5.896686681          9.571206506          10.213798228
O   7.909686681          9.979206506          10.127798228
H   7.734053319          9.624733494          11.046221772
H   8.646686681          9.746206506          9.540798228
