&control
  calculation='relax'
  restart_mode='from_scratch'
  prefix='scm2020i'
  pseudo_dir='../../../pp'
  etot_conv_thr = 1.0D-3
  forc_conv_thr = 1
  outdir='./out'
  nstep=20000
  max_seconds=14000
  tprnfor=.TRUE.
  tstress=.TRUE.
  disk_io='none'
/
&system
  ibrav=0
  a=4.7604413033
  nat=12
  ntyp=2,
  ecutwfc=70
  ecutrho=280
  nosym=.TRUE.
  occupations='smearing'
  smearing='gaussian'
  degauss=0.02
/
&electrons
  diagonalization='david'
  electron_maxstep = 100
  mixing_beta = 0.7
  conv_thr = 1.0D-3
/
&ions
/
K_POINTS automatic 
2 1 1 0 0 0
CELL_PARAMETERS {alat}
 1.000000000000000   0.000000000000000   0.000000000000000
-0.499999885000000   0.866025470000000   0.000000000000000
 0.000000000000000   0.000000000000000   1.658502956000000

ATOMIC_SPECIES
Nb   92.90638   Nb.pbe-spn-kjpaw_psl.1.0.0.UPF 
Fe   55.84500   Fe.pbe-spn-kjpaw_psl.1.0.0.UPF 

ATOMIC_POSITIONS {angstrom}
Nb 0.01592521562006336 2.8235560587264734 3.428374986297133
Nb 2.436773301820349 1.45810240992722 4.503757525300463
Nb 2.4375571165137737 1.4558031486339613 7.373106776225662
Nb 0.02376385714240862 2.8106207204675204 0.5921683872980679
Fe 0.06942091692854457 0.0796324924444342 3.969296140522953
Fe 0.0699014600485649 0.07644827929357809 0.08880589772015102
Fe -1.1570124710606198 3.462927993160477 5.941776212443866
Fe 0.05363248899181782 1.4913215398112092 6.005002592033591
Fe 1.1791632027408965 3.4460858769661016 6.009292794559542
Fe 3.607553512800294 0.7420420277391002 1.9956213677424224
Fe 2.407350138383943 2.7752443750682914 1.9882225703839729
Fe 1.2309786645666572 0.7314417640795038 1.9968746923948892
