&control
  calculation='relax'
  restart_mode='from_scratch'
  prefix='scm2020i'
  pseudo_dir='../../../pp'
  etot_conv_thr = 1.0D-3
  forc_conv_thr = 1
  outdir='./out'
  nstep=20000
  max_seconds=14000
  tprnfor=.TRUE.
  tstress=.TRUE.
  disk_io='none'
/
&system
  ibrav=0
  a=4.7604413033
  nat=12
  ntyp=2,
  ecutwfc=70
  ecutrho=280
  nosym=.TRUE.
  occupations='smearing'
  smearing='gaussian'
  degauss=0.02
/
&electrons
  diagonalization='david'
  electron_maxstep = 100
  mixing_beta = 0.7
  conv_thr = 1.0D-3
/
&ions
/
K_POINTS automatic 
2 1 1 0 0 0
CELL_PARAMETERS {alat}
 1.000000000000000   0.000000000000000   0.000000000000000
-0.499999885000000   0.866025470000000   0.000000000000000
 0.000000000000000   0.000000000000000   1.658502956000000

ATOMIC_SPECIES
Nb   92.90638   Nb.pbe-spn-kjpaw_psl.1.0.0.UPF 
Fe   55.84500   Fe.pbe-spn-kjpaw_psl.1.0.0.UPF 

ATOMIC_POSITIONS {angstrom}
Nb 0.0747603863982233 2.780685189681846 3.4656554355961555
Nb 2.404085995724747 1.434044371501024 4.533161466266539
Nb 2.4630599473211703 1.420684059147324 7.454786571295954
Nb 0.08437984886501579 2.7576211305860934 0.6126914521324814
Fe 0.03416594395231348 0.004710637875392373 4.047294918861715
Fe 0.06921437655902904 0.031772029624097614 0.06590225811237134
Fe -1.1014567429631508 3.4582748391285096 5.93677407472127
Fe 0.03706707084848024 1.461575604925915 6.014707005495286
Fe 1.254729670609852 3.4837148203334536 6.005311037760144
Fe 3.6387935618860276 0.725639577603305 2.0205051808133634
Fe 2.4617586030116687 2.740764399197859 2.056406635675083
Fe 1.2990604008190716 0.7687221547299754 1.9865242361825923
