&CONTROL
calculation = 'scf' 
verbosity = 'high',
restart_mode = 'from_scratch',
wf_collect = .true.
nstep = 1000,
tstress = .true.,
tprnfor = .true., 
outdir = './out',
pseudo_dir = '/home/sampa/Lab6/pseudos',
prefix = 'dimer',
/  
&SYSTEM
        ibrav = 0, 
         nat = 12,
         ntyp = 3,
      ecutwfc = 45,
      ecutrho = 200,
    input_dft = 'PBE',
assume_isolated='mt',
/    
&ELECTRONS 
  electron_maxstep = 500,
  mixing_beta = 0.3 
/ 
&IONS 
/
CELL_PARAMETERS angstrom 
10.0000        0.0000        0.0000
0.0000        12.000        0.0000
0.0000        0.0000        12.000
K_POINTS {automatic}
2 1 1 0 0 0
ATOMIC_SPECIES
O   15.9994   O_pbe_v1.2.uspp.F.UPF
H    1.0080   H.pbe-rrkjus_psl.0.1.UPF
C   12.0110   C_pbe_v1.2.uspp.F.UPF
ATOMIC_POSITIONS angstrom
C      7.645340422          7.338724958          11.757444625
O      8.203455919          6.032118804          11.891185958
H      7.476301097          5.388223925          11.830473050
O      5.765664549          12.872300320          11.145302788
H      5.056298386          13.538216491          11.134140425
C      6.390386057          12.917512643          12.427409050
H      7.234991645          12.215323395          12.391151687
H      5.707803900          12.599826610          13.239009690
H      6.786877227          13.922113979          12.665444056
H      8.489749741          8.042567568          11.779849045
H      6.959372090          7.589359297          12.589433356
H      7.109188965          7.474292009          10.799886271
