&CONTROL
calculation = 'scf' 
verbosity = 'high',
restart_mode = 'from_scratch',
wf_collect = .true.
nstep = 1000,
tstress = .true.,
tprnfor = .true., 
outdir = './out',
pseudo_dir = '/home/sampa/Lab6/pseudos',
prefix = 'dimer',
/  
&SYSTEM
        ibrav = 0, 
         nat = 12,
         ntyp = 3,
      ecutwfc = 45,
      ecutrho = 200,
    input_dft = 'PBE',
assume_isolated='mt',
/    
&ELECTRONS 
  electron_maxstep = 500,
  mixing_beta = 0.3 
/ 
&IONS 
/
CELL_PARAMETERS angstrom 
15.0000        0.0000        0.0000
0.0000        20.000        0.0000
0.0000        0.0000        25.000
K_POINTS {automatic}
2 1 1 0 0 0
ATOMIC_SPECIES
O   15.9994   O_pbe_v1.2.uspp.F.UPF
H    1.0080   H.pbe-rrkjus_psl.0.1.UPF
C   12.0110   C_pbe_v1.2.uspp.F.UPF
ATOMIC_POSITIONS angstrom
C    6.941229107          9.431466254          13.685845355
O    6.713229107          9.258466254          12.299845355
H    7.820229107          10.060466254          13.847845355
H    7.090229107          8.454466254          14.152845355
H    6.067229107          9.914466254          14.129845355
C    6.953510893          9.516473746          8.918174645
H    6.829510893          9.588473746          7.834174645
H    7.122510893          8.475473746          9.205174645
H    6.053510893          9.889473746          9.410174645
O    8.066510893          10.297473746          9.324174645
H    7.577229107          9.306466254          11.849845355
H    8.803510893          10.064473746          8.737174645
