&CONTROL
calculation = 'scf' 
verbosity = 'high',
restart_mode = 'from_scratch',
wf_collect = .true.
nstep = 1000,
tstress = .true.,
tprnfor = .true., 
outdir = './out',
pseudo_dir = '/home/sampa/Lab6/pseudos',
prefix = 'dimer',
/  
&SYSTEM
        ibrav = 0, 
         nat = 12,
         ntyp = 3,
      ecutwfc = 45,
      ecutrho = 200,
    input_dft = 'PBE',
assume_isolated='mt',
/    
&ELECTRONS 
  electron_maxstep = 500,
  mixing_beta = 0.3 
/ 
&IONS 
/
CELL_PARAMETERS angstrom 
15.0000        0.0000        0.0000
0.0000        20.000        0.0000
0.0000        0.0000        25.000
K_POINTS {automatic}
2 1 1 0 0 0
ATOMIC_SPECIES
O   15.9994   O_pbe_v1.2.uspp.F.UPF
H    1.0080   H.pbe-rrkjus_psl.0.1.UPF
C   12.0110   C_pbe_v1.2.uspp.F.UPF
ATOMIC_POSITIONS angstrom
C    8.606913021          9.238866445          12.174849210
O    7.220913021          9.065866445          12.402849210
H    8.747288644          9.910453370          11.180334102
H    9.073913021          8.261866445          12.025849210
H    9.050913021          9.721866445          13.048849210
C    7.009526979          9.411813555          9.181310790
H    6.885526979          9.483813555          8.097310790
H    7.178526979          8.370813555          9.468310790
H    6.109526979          9.784813555          9.673310790
O    8.122526979          10.192813555          9.587310790
H    6.770913021          9.113866445          11.538849210
H    8.859526979          9.959813555          9.000310790
