&CONTROL
calculation = 'scf' 
verbosity = 'high',
restart_mode = 'from_scratch',
wf_collect = .true.
nstep = 1000,
tstress = .true.,
tprnfor = .true., 
outdir = './out',
pseudo_dir = '/home/sampa/Lab6/pseudos',
prefix = 'dimer',
/  
&SYSTEM
        ibrav = 0, 
         nat = 12,
         ntyp = 3,
      ecutwfc = 45,
      ecutrho = 200,
    input_dft = 'PBE',
assume_isolated='mt',
/    
&ELECTRONS 
  electron_maxstep = 500,
  mixing_beta = 0.3 
/ 
&IONS 
/
CELL_PARAMETERS angstrom 
10.0000        0.0000        0.0000
0.0000        12.000        0.0000
0.0000        0.0000        12.000
K_POINTS {automatic}
2 1 1 0 0 0
ATOMIC_SPECIES
O   15.9994   O_pbe_v1.2.uspp.F.UPF
H    1.0080   H.pbe-rrkjus_psl.0.1.UPF
C   12.0110   C_pbe_v1.2.uspp.F.UPF
ATOMIC_POSITIONS angstrom
C     7.303133669          8.476749274          11.924163527
O     7.861249166          7.170143120          12.057904860
H     7.134094344          6.526248241          11.997191952
O     6.107871302          11.734276004          10.978583886
H     5.398505139          12.400192175          10.967421523
C     6.732592810          11.779488327          12.260690148
H     7.577198398          11.077299079          12.224432785
H     6.050010653          11.461802294          13.072290788
H     7.129083980          12.784089663          12.498725154
H     8.147542988          9.180591884          11.946567947
H     6.617165337          8.727383613          12.756152258
H     6.766982212          8.612316325          10.966605173
