&CONTROL
calculation = 'scf' 
verbosity = 'high',
restart_mode = 'from_scratch',
wf_collect = .true.
nstep = 1000,
tstress = .true.,
tprnfor = .true., 
outdir = './out',
pseudo_dir = '/home/sampa/Lab6/pseudos',
prefix = 'dimer',
/  
&SYSTEM
        ibrav = 0, 
         nat = 12,
         ntyp = 3,
      ecutwfc = 45,
      ecutrho = 200,
    input_dft = 'PBE',
assume_isolated='mt',
/    
&ELECTRONS 
  electron_maxstep = 500,
  mixing_beta = 0.3 
/ 
&IONS 
/
CELL_PARAMETERS angstrom 
10.0000        0.0000        0.0000
0.0000        12.000        0.0000
0.0000        0.0000        12.000
K_POINTS {automatic}
2 1 1 0 0 0
ATOMIC_SPECIES
O   15.9994   O_pbe_v1.2.uspp.F.UPF
H    1.0080   H.pbe-rrkjus_psl.0.1.UPF
C   12.0110   C_pbe_v1.2.uspp.F.UPF
ATOMIC_POSITIONS angstrom
C   7.076099149          9.705424367          12.997024715
O   6.848099149          9.532424367          11.611024715
H   7.955099149          10.334424367          13.159024715
H   7.225099149          8.728424367          13.464024715
H   6.202099149          10.188424367          13.441024715
C   6.818640851          9.242515633          9.606995285
H   6.694640851          9.314515633          8.522995285
H   6.987640851          8.201515633          9.893995285
H   5.918640851          9.615515633          10.098995285
O   7.931640851          10.023515633          10.012995285
H   7.712099149          9.580424367          11.161024715
H   8.668640851          9.790515633          9.425995285
